24000
Time=99999.99999996 pbc="T T F" Lattice="249.415316 0 0 0 259.2 0 0 0 20" energy=-190517.74 virial="-1915.35082 -59.4122817 6.32955777 -59.4122817 -2360.92659 3.27066001 6.32955777 3.27066001 -632.731694" stress="-0.000998711053 -4.83675661e-05 4.00387042e-06 -4.83675661e-05 -0.00134148579 3.12730999e-06 4.00387042e-06 3.12730999e-06 -2.00158754e-06" Properties=species:S:1:pos:R:3
C 249.397327 259.149673 -0.0321530325
C 249.343169 1.39743642 -0.0587719828
C 1.20172587 2.12582619 -0.12612556
C 1.20388597 3.52553586 -0.119708164
C 2.46602125 0.00103155367 -0.131251239
C 2.49904602 1.43564726 -0.146221576
C 3.7250721 2.12328185 -0.266767631
C 3.71989843 3.55584695 -0.324659115
C 4.96975807 259.155405 -0.231342852
C 4.94380666 1.37705672 -0.30750999
C 6.21353261 2.10458725 -0.399000063
C 6.2141835 3.5611819 -0.478295337
C 7.4256958 259.176491 -0.24212545
C 7.4563877 1.4283151 -0.330002534
C 8.68997181 2.12850729 -0.335485308
C 8.69731803 3.56152236 -0.463282031
C 9.94378145 259.152736 -0.293097916
C 9.93310628 1.4019937 -0.248156765
C 11.1938667 2.13397832 -0.355724038
C 11.20052 3.59540858 -0.41944584
C 12.4414705 259.199019 -0.304722322
C 12.4699559 1.42661426 -0.399640959
C 13.7056661 2.13649942 -0.406461938
C 13.7246754 3.5361446 -0.408524526
C 14.9387463 259.184344 -0.314143114
C 14.9102488 1.40678124 -0.369609695
C 16.1566012 2.08578993 -0.422329036
C 16.1523977 3.52729647 -0.388400344
C 17.4196459 259.176942 -0.306426247
C 17.3874884 1.43122714 -0.435499592
C 18.6719142 2.12944394 -0.367330578
C 18.6346504 3.60233197 -0.29270486
C 19.9166429 259.167216 -0.425049773
C 19.891003 1.451194 -0.355709126
C 21.1419082 2.17931464 -0.340852861
C 21.1647541 3.61829527 -0.312558628
C 22.4105621 259.195329 -0.301655147
C 22.4490104 1.4888899 -0.294887025
C 23.6419994 2.16166513 -0.279101768
C 23.6905952 3.57365487 -0.303202001
C 24.9183185 0.00733372162 -0.138954635
C 24.8806127 1.48756296 -0.155781872
C 26.1251114 2.19737085 -0.196944818
C 26.0936104 3.61186252 -0.251630138
C 27.3754578 0.0335340592 0.0371522191
C 27.3996996 1.48274043 -0.0418194391
C 28.633653 2.24892066 -0.0852020826
C 28.6315861 3.6819955 -0.139747602
C 29.831084 0.0181798147 -0.0201446739
C 29.8304618 1.44040111 -0.0468743866
C 31.1055275 2.14200399 -0.0848843006
C 31.1294264 3.57430048 -0.0146851498
C 32.3433804 259.196909 -0.102895881
C 32.3645131 1.45711275 -0.14735632
C 33.598226 2.18716342 -0.163212075
C 33.5822137 3.6030101 -0.0581026019
C 34.810745 0.0139452466 -0.170924574
C 34.8347095 1.43283851 -0.14137848
C 36.1266325 2.17768988 -0.155468615
C 36.1241773 3.60760975 -0.0698895363
C 37.3286838 259.179076 -0.349826399
C 37.3464049 1.41140385 -0.260689065
C 38.5685438 2.16885642 -0.256680067
C 38.5980705 3.60721777 -0.153708016
C 39.8178451 0.0201966679 -0.470343597
C 39.8228669 1.44157309 -0.442617647
C 41.091901 2.14408819 -0.452317094
C 41.1369929 3.59962636 -0.345034736
C 42.3114502 259.17944 -0.537389871
C 42.3536658 1.42423112 -0.458867828
C 43.6359545 2.13171977 -0.278739157
C 43.6407127 3.5935536 -0.207955044
C 44.8299449 259.167428 -0.356008826
C 44.8865801 1.39862307 -0.276192303
C 46.1176668 2.17030737 -0.339507216
C 46.1130257 3.61450313 -0.350355113
C 47.3453844 259.199515 -0.495339069
C 47.3492409 1.41388002 -0.438370238
C 48.5921917 2.15939435 -0.374544243
C 48.6187614 3.59022124 -0.385903875
C 49.8436381 0.00892213404 -0.420931269
C 49.810255 1.4465978 -0.377323609
C 51.071713 2.16668709 -0.392968815
C 51.112746 3.64230273 -0.35768585
C 52.3105988 0.0925204375 -0.304092751
C 52.3336911 1.5084479 -0.385493967
C 53.5580825 2.22962699 -0.313083208
C 53.5973651 3.64158278 -0.177819672
C 54.811146 259.197474 -0.317724353
C 54.7953287 1.4845911 -0.317213498
C 56.0834524 2.20775266 -0.167916159
C 56.1113123 3.62996804 0.00141202927
C 57.2983656 0.100912818 -0.121591306
C 57.3126704 1.53559245 -0.118237195
C 58.5750955 2.20319769 0.0216305878
C 58.5635506 3.62268864 0.207823104
C 59.8495819 0.0730368067 0.0549570314
C 59.8229671 1.48228526 0.126507414
C 61.0305571 2.19784361 0.213621989
C 61.0482266 3.61453619 0.284379456
C 62.3125371 0.0354360407 0.184896068
C 62.2993445 1.46352965 0.226146784
C 63.5582349 2.18080824 0.194195403
C 63.5360158 3.6234873 0.282065848
C 64.8050785 0.00442801473 0.177957289
C 64.7846141 1.45573914 0.173131486
C 66.0616275 2.15850673 0.27270161
C 66.0422083 3.59285138 0.404568212
C 67.2855375 0.0538050645 0.300098134
C 67.3208004 1.4774861 0.300572702
C 68.565902 2.20312912 0.319966493
C 68.5814223 3.62933182 0.3439737
C 69.818143 0.0771649499 0.292819651
C 69.8062666 1.5011083 0.252654101
C 71.0631395 2.18257801 0.140253261
C 71.0606334 3.62013978 0.135560515
C 72.2817222 0.0279893881 0.0963689914
C 72.3144692 1.44878428 0.115043251
C 73.5774574 2.19208961 0.0788298892
C 73.5472673 3.65987083 0.0271266942
C 74.7981603 0.0189282112 0.0524089677
C 74.8273527 1.43772028 0.115393768
C 76.0532143 2.17997615 0.0490934864
C 76.0725139 3.62225938 -0.0451509834
C 77.3321385 0.0603089741 -0.0864935647
C 77.3276692 1.48984818 -0.00685410455
C 78.5660665 2.15942685 -0.0526108351
C 78.5802427 3.61718339 -0.0493784701
C 79.8151516 0.00879523844 -0.280400288
C 79.7953697 1.45573541 -0.188350373
C 81.025629 2.20727023 -0.319431678
C 81.0287573 3.618616 -0.317586018
C 82.2890918 0.0261761544 -0.499959879
C 82.2720433 1.48666423 -0.466193254
C 83.5108386 2.19647657 -0.49390688
C 83.5313517 3.62861737 -0.471293995
C 84.8248614 0.0693083802 -0.648446926
C 84.8004084 1.5233388 -0.605367665
C 86.0954421 2.19208654 -0.632535287
C 86.1124565 3.62774488 -0.599854597
C 87.2754683 0.0429990439 -1.01521003
C 87.3371732 1.48178252 -0.857130825
C 88.5856708 2.21278996 -0.883669733
C 88.5628166 3.67545983 -0.823607589
C 89.8258014 0.0294489552 -1.0167117
C 89.8358761 1.51141511 -0.983347533
C 91.0314898 2.21342423 -0.930323334
C 91.02158 3.64829104 -0.795012688
C 92.3129187 0.0561353942 -0.86931994
C 92.2936726 1.51596392 -0.878385047
C 93.5219973 2.22444777 -0.724690504
C 93.5681158 3.65406716 -0.76276927
C 94.8129188 0.0406025454 -0.67433158
C 94.7991682 1.49464395 -0.688614254
C 95.9962792 2.28274867 -0.700051051
C 96.0297395 3.68188158 -0.642327113
C 97.3789075 0.0305557426 -0.731383615
C 97.2860188 1.48949123 -0.686763296
C 98.5486881 2.18103233 -0.690381725
C 98.512987 3.64453266 -0.539112064
C 99.8508367 0.0202609623 -0.732002479
C 99.7873165 1.45020225 -0.707253336
C 101.01711 2.20559315 -0.70838052
C 101.084349 3.67406449 -0.617982945
C 102.332846 0.00942430759 -0.633781906
C 102.327737 1.47902449 -0.654546604
C 103.54788 2.16818263 -0.620242594
C 103.522265 3.60324099 -0.461678935
C 104.795557 259.155189 -0.513395154
C 104.774161 1.4070532 -0.555930626
C 106.000344 2.14988518 -0.565441069
C 105.999533 3.60064795 -0.431168073
C 107.256726 0.00253731444 -0.563564659
C 107.255497 1.44330661 -0.6155436
C 108.514102 2.14621368 -0.614961279
C 108.48967 3.57639166 -0.455378428
C 109.748923 259.182968 -0.5420024
C 109.724187 1.39697642 -0.582149283
C 110.960034 2.14590104 -0.471244689
C 110.962567 3.57089344 -0.564246822
C 112.253152 259.188062 -0.458883935
C 112.226448 1.46632984 -0.367357834
C 113.464649 2.19926746 -0.340976429
C 113.449112 3.58460326 -0.466950609
C 114.707565 0.0340888712 -0.170721303
C 114.746277 1.46112503 -0.20813767
C 116.002212 2.16941041 -0.127987542
C 116.033359 3.61242967 -0.304792029
C 117.21029 0.00126609075 -0.0709276126
C 117.217472 1.45322215 -0.0991410085
C 118.421097 2.16171011 -0.27215637
C 118.421012 3.61277515 -0.468892816
C 119.67914 0.0233861277 -0.111641765
C 119.685517 1.47459824 -0.23024281
C 120.928207 2.18186763 -0.302615885
C 120.897843 3.63665736 -0.393027201
C 122.133603 0.0396037535 -0.222664821
C 122.189557 1.48722555 -0.227047879
C 123.433878 2.20582226 -0.171441246
C 123.381789 3.66794438 -0.263257134
C 124.615967 0.0231209909 -0.172620572
C 124.681489 1.47782572 -0.157971478
C 125.863971 2.16581723 -0.258973821
C 125.911493 3.59365115 -0.337202353
C 127.175153 259.154914 -0.278190292
C 127.155784 1.43687499 -0.296162813
C 128.370348 2.12662824 -0.443721541
C 128.384738 3.5878418 -0.577797106
C 129.702862 259.198182 -0.338820679
C 129.653725 1.424694 -0.462758548
C 130.852847 2.15528383 -0.567831466
C 130.894418 3.63926161 -0.627597627
C 132.166526 259.180283 -0.529304271
C 132.13485 1.44490598 -0.552203059
C 133.3699 2.17803646 -0.477441736
C 133.407516 3.63237484 -0.55108198
C 134.691368 0.010373691 -0.379256456
C 134.661503 1.43553326 -0.391863831
C 135.932242 2.16817051 -0.409421066
C 135.971431 3.62538853 -0.439500236
C 137.142462 259.163717 -0.397678901
C 137.193202 1.42042867 -0.471466886
C 138.481877 2.16822725 -0.537234472
C 138.478075 3.55187432 -0.588818836
C 139.714417 259.179068 -0.59371981
C 139.709534 1.43133331 -0.636085003
C 140.926214 2.16987646 -0.659529638
C 140.945175 3.64029325 -0.699904912
C 142.26114 0.0260743337 -0.686519422
C 142.226327 1.42247872 -0.773775197
C 143.465461 2.1932059 -0.921944765
C 143.448628 3.64670733 -0.855092491
C 144.749988 259.184992 -0.85100684
C 144.738009 1.42787907 -0.930407115
C 145.989792 2.16406349 -0.873853527
C 145.98088 3.61933048 -0.739788521
C 147.230041 0.00545378996 -0.76819975
C 147.214497 1.4686863 -0.716369595
C 148.492434 2.1793091 -0.585454514
C 148.457552 3.62702053 -0.528803106
C 149.770938 0.0629696571 -0.723623447
C 149.732988 1.46414908 -0.612294336
C 150.953804 2.1723474 -0.548998862
C 150.922247 3.60811111 -0.493336186
C 152.1919 0.0113013666 -0.424725889
C 152.202595 1.45955686 -0.456842334
C 153.465234 2.14451982 -0.373593033
C 153.483132 3.56644438 -0.420101742
C 154.740351 0.00364490077 -0.404227949
C 154.679002 1.42935919 -0.348573566
C 155.938745 2.13852471 -0.248464921
C 155.99045 3.58641392 -0.237454193
C 157.205036 259.194165 -0.494640628
C 157.184479 1.43298915 -0.394179202
C 158.444004 2.20189792 -0.311694054
C 158.447159 3.66299195 -0.281573105
C 159.64941 0.0497907719 -0.493578479
C 159.700791 1.52336688 -0.406853304
C 160.955553 2.25034594 -0.388354623
C 160.957467 3.69471906 -0.277069228
C 162.154937 0.04971755 -0.503327205
C 162.197499 1.49282946 -0.391520016
C 163.398374 2.19403252 -0.218915773
C 163.386955 3.61980113 -0.136818703
C 164.6867 0.0567250848 -0.248636635
C 164.630205 1.4993088 -0.207028918
C 165.91333 2.21081389 -0.0395470516
C 165.894924 3.65066248 -0.0201335977
C 167.161555 0.0377810668 -0.0541614665
C 167.124545 1.48183745 0.0358467564
C 168.338133 2.20716281 0.107434581
C 168.443302 3.66721481 0.106765129
C 169.626162 0.0663407683 0.180506801
C 169.594086 1.48358022 0.196129848
C 170.862625 2.23479547 0.266530439
C 170.858535 3.7054729 0.257986523
C 172.106374 0.0217766188 0.451234184
C 172.104686 1.49226933 0.347930327
C 173.354356 2.22197715 0.340457784
C 173.381324 3.6750086 0.266564017
C 174.595431 0.101287632 0.562148486
C 174.622376 1.546554 0.458713899
C 175.88229 2.19118955 0.453008779
C 175.900486 3.65230881 0.400425894
C 177.069686 0.0284631276 0.621871843
C 177.111813 1.50977434 0.490190316
C 178.364929 2.22856236 0.373913247
C 178.330044 3.64075401 0.18077027
C 179.604975 0.048513034 0.361224919
C 179.600787 1.54484327 0.399701993
C 180.874415 2.26728887 0.330414866
C 180.839038 3.65820954 0.147137855
C 182.106814 0.1238837 0.223655153
C 182.126237 1.54902194 0.265855666
C 183.391231 2.28692473 0.0335470855
C 183.351046 3.7043389 -0.0260573147
C 184.563126 0.062819483 -0.170416165
C 184.613369 1.52300761 -0.13217163
C 185.871529 2.23749635 -0.15992081
C 185.840982 3.68170726 -0.118241456
C 187.072208 0.0541362939 -0.26634892
C 187.070303 1.52582314 -0.204004073
C 188.360802 2.21720702 -0.138997951
C 188.368386 3.65953617 -0.0964085282
C 189.498751 0.035710182 -0.233235171
C 189.59801 1.48250602 -0.219675308
C 190.828397 2.20355298 -0.30217585
C 190.853822 3.66324464 -0.294510234
C 192.032561 0.0298374041 -0.560269865
C 192.078007 1.46809775 -0.406654202
C 193.310669 2.22363414 -0.442296863
C 193.329241 3.67437077 -0.445707276
C 194.531763 259.176133 -0.883311471
C 194.551482 1.39569384 -0.686090366
C 195.793606 2.18288198 -0.798369551
C 195.777066 3.63554283 -0.717468011
C 197.024131 259.192949 -1.1964397
C 197.020831 1.48756099 -1.03943146
C 198.2928 2.19286865 -1.1259324
C 198.251428 3.62861021 -1.00603353
C 199.445614 259.197586 -1.51014211
C 199.469039 1.4447115 -1.29070367
C 200.666647 2.23574348 -1.26232199
C 200.762888 3.65903964 -1.21317049
C 201.942042 0.012681888 -1.46916923
C 201.912821 1.4545326 -1.36881528
C 203.230002 2.13323174 -1.43111421
C 203.270288 3.59559831 -1.39822884
C 204.495168 0.0454657574 -1.32022843
C 204.48208 1.44859095 -1.28381928
C 205.761855 2.13084395 -1.20515884
C 205.73703 3.52910051 -1.17493635
C 206.98431 259.197932 -1.39209775
C 207.012154 1.43423685 -1.19110587
C 208.239705 2.1328826 -1.24322073
C 208.225319 3.57659079 -1.23348222
C 209.458019 259.172706 -1.43494441
C 209.479682 1.39297287 -1.34519583
C 210.713818 2.17988154 -1.2759699
C 210.723805 3.60448531 -1.31225745
C 211.989912 259.18481 -1.48785434
C 211.981778 1.45093991 -1.32188723
C 213.28292 2.21167667 -1.36307168
C 213.21044 3.63295544 -1.42323016
C 214.501498 0.0174141225 -1.35766838
C 214.542796 1.45449324 -1.39436987
C 215.786802 2.15396586 -1.27682282
C 215.767474 3.62582585 -1.33909019
C 217.010285 0.0517703609 -1.29211383
C 217.043708 1.48896119 -1.25378919
C 218.266299 2.19468152 -1.12648774
C 218.283109 3.62678822 -1.13513124
C 219.498746 0.00438313777 -1.25431611
C 219.499096 1.46592168 -1.1713051
C 220.786514 2.19023142 -1.12934471
C 220.803289 3.64572132 -1.10144088
C 221.95236 0.00861428971 -1.05082633
C 222.014713 1.43797768 -1.04857049
C 223.245782 2.19300652 -1.04467903
C 223.232111 3.62604298 -0.974657281
C 224.477269 0.0049351671 -1.03620126
C 224.478186 1.41908985 -1.06670984
C 225.729108 2.13737229 -1.0020088
C 225.706045 3.59064028 -0.915561541
C 227.03636 259.192243 -0.977073719
C 227.006585 1.41614036 -0.990587588
C 228.258351 2.1416342 -0.8609209
C 228.252045 3.61076189 -0.886044567
C 229.491272 0.0327324617 -0.793389508
C 229.436267 1.43804231 -0.76394796
C 230.711102 2.15191547 -0.787295645
C 230.703148 3.60673395 -0.753093263
C 231.907315 0.00475089734 -0.721224384
C 231.957995 1.45268688 -0.756512563
C 233.214588 2.17931134 -0.695132145
C 233.2114 3.58547859 -0.716214234
C 234.41462 0.00769646032 -0.621082207
C 234.455284 1.42292493 -0.602534923
C 235.661187 2.14666499 -0.440798687
C 235.714893 3.59598492 -0.489080107
C 236.881287 259.182671 -0.362896979
C 236.948293 1.40197335 -0.373017228
C 238.202367 2.13135554 -0.309510063
C 238.208963 3.55244832 -0.297604178
C 239.405934 259.093286 -0.225417843
C 239.395289 1.36639406 -0.259996367
C 240.670339 2.08656381 -0.260976012
C 240.629209 3.58302386 -0.172092715
C 241.9328 259.135044 -0.260271151
C 241.957592 1.36774863 -0.248324476
C 243.160522 2.16426129 -0.22313911
C 243.135681 3.57978425 -0.196152204
C 244.390521 259.176334 0.0293812157
C 244.404883 1.43914267 -0.0850268779
C 245.648825 2.16235061 -0.00199640775
C 245.649207 3.57283139 -0.0788532088
C 246.867798 259.183558 0.0817339459
C 246.847021 1.38051581 0.109732001
C 248.123621 2.0800075 0.0129936359
C 248.130918 3.51437573 -0.116715289
C 249.394221 4.21366179 -0.0874984226
C 249.394671 5.70382076 -0.096560562
C 1.19060411 6.47252444 -0.173486428
C 1.20595553 7.88160065 -0.19483482
C 2.4380498 4.25175481 -0.246343566
C 2.45403628 5.70944244 -0.20647202
C 3.69038712 6.45021777 -0.211503765
C 3.69964714 7.87974914 -0.194972657
C 4.94193311 4.30158039 -0.400256768
C 4.94918168 5.72891229 -0.303315388
C 6.16683228 6.44854466 -0.319855746
C 6.15628765 7.8638226 -0.255672906
C 7.41582213 4.25871726 -0.437924606
C 7.40015045 5.69593485 -0.385901073
C 8.66633124 6.44201835 -0.391353635
C 8.70132636 7.8606292 -0.330572887
C 9.93197689 4.2734292 -0.453302234
C 9.94813323 5.73740736 -0.49747028
C 11.2631891 6.45541884 -0.478759416
C 11.2063215 7.88168738 -0.411709794
C 12.4686335 4.29514181 -0.401927984
C 12.5126505 5.7585999 -0.401384531
C 13.7509619 6.45871143 -0.222504794
C 13.704971 7.88928842 -0.190544463
C 14.9428983 4.28542658 -0.335948117
C 14.964754 5.70158419 -0.154750169
C 16.1692928 6.45710248 -0.0718513134
C 16.171847 7.9054202 0.0373216751
C 17.3677656 4.31367982 -0.237894815
C 17.4519887 5.75253714 -0.125150428
C 18.6776533 6.47548776 -0.154231109
C 18.6902995 7.90561776 -0.0391504244
C 19.8742722 4.35279299 -0.355267717
C 19.9097314 5.81324141 -0.351412411
C 21.1685249 6.47550661 -0.356030512
C 21.174662 7.93108271 -0.289616884
C 22.4078864 4.33010686 -0.33329961
C 22.3952566 5.77613173 -0.397496498
C 23.6450889 6.49212919 -0.379988013
C 23.6826898 7.92057922 -0.246912875
C 24.905259 4.38248447 -0.297599905
C 24.8961176 5.79748141 -0.344170111
C 26.1775096 6.55316779 -0.410146794
C 26.1994576 7.98338755 -0.324702568
C 27.329508 4.36950987 -0.262467645
C 27.3994675 5.8278518 -0.373615125
C 28.635376 6.52608737 -0.264320069
C 28.6630242 7.93503898 -0.304353006
C 29.8990618 4.36967023 -0.109962699
C 29.8581073 5.77552622 -0.142392106
C 31.1058342 6.5298366 -0.0750504746
C 31.1131367 7.9353827 -0.0510376583
C 32.3626338 4.31907854 0.0195582782
C 32.3624919 5.76108509 0.0146774992
C 33.5498507 6.52777856 0.0978589833
C 33.5998364 7.94172771 0.130877047
C 34.8637286 4.31660711 0.0127539579
C 34.7926244 5.78542117 0.0168975443
C 36.1009297 6.50215012 -0.0141329346
C 36.1105778 7.91473258 0.0443986568
C 37.3892407 4.31880064 -0.0609010325
C 37.3676662 5.73016583 -0.00397492634
C 38.5778744 6.47536817 0.0250320165
C 38.5636262 7.92002978 0.00732584711
C 39.877671 4.32058781 -0.115857896
C 39.8534057 5.75086941 0.0479907163
C 41.1225455 6.50433291 0.0665815735
C 41.1181884 7.94628282 0.0332480965
C 42.4060214 4.32264572 -0.18223849
C 42.3679292 5.7855955 -0.133173009
C 43.5933971 6.47168775 -0.174377806
C 43.5921353 7.92552718 -0.200618326
C 44.880088 4.35360169 -0.256124965
C 44.8534243 5.75256825 -0.306407369
C 46.0914606 6.5237314 -0.286607107
C 46.0631935 7.95212294 -0.252050643
C 47.3824493 4.33894801 -0.338042643
C 47.3523047 5.79239207 -0.303243357
C 48.5444099 6.51567919 -0.239907871
C 48.5620025 7.96588419 -0.110018921
C 49.8197335 4.33000073 -0.341496379
C 49.7973387 5.80888584 -0.295493106
C 51.0459172 6.48762431 -0.142534031
C 51.0202981 7.89761806 0.0825684199
C 52.3509987 4.32076699 -0.154293217
C 52.2556023 5.77438865 -0.085590511
C 53.5902371 6.46143144 0.0101361216
C 53.533583 7.9515666 0.224924238
C 54.828873 4.34098358 0.0135119198
C 54.8089412 5.75579886 0.0968677383
C 55.9968453 6.53702035 0.220157634
C 55.9894838 7.97071826 0.307948206
C 57.2946392 4.38715345 0.155567697
C 57.2618871 5.79722633 0.263044484
C 58.547715 6.49182648 0.289694484
C 58.5495768 7.92149725 0.353843458
C 59.8472349 4.32644025 0.299041672
C 59.8296622 5.81100583 0.33960531
C 61.0589696 6.54328631 0.482956444
C 61.0770175 7.94251273 0.47317752
C 62.2894135 4.3240352 0.316247603
C 62.2741107 5.77269417 0.419085906
C 63.5181761 6.50332174 0.425118959
C 63.5905313 7.91274158 0.399062097
C 64.786731 4.31614728 0.365607044
C 64.7691138 5.77405529 0.397326353
C 66.0447429 6.4553812 0.328185411
C 66.0930889 7.94122272 0.289305471
C 67.3071379 4.31184535 0.467642669
C 67.2781516 5.72027201 0.348397132
C 68.5619479 6.43489077 0.228083446
C 68.5683872 7.90633618 0.203994312
C 69.7897272 4.37123063 0.20786865
C 69.7872383 5.77179142 0.154961199
C 71.0444178 6.46024377 -0.00166743936
C 71.0652475 7.94428098 -0.0367786643
C 72.3153889 4.33370597 0.0671871827
C 72.2779691 5.79076736 0.0193741204
C 73.5052552 6.53960853 -0.0250590716
C 73.5510431 7.96381695 -0.127311666
C 74.8292175 4.35776638 -0.0110977432
C 74.7505672 5.81517495 -0.0233199278
C 76.0694655 6.51459082 -0.0495911903
C 76.0579186 7.98275106 -0.146863596
C 77.349954 4.31962403 -0.0548397641
C 77.3186951 5.79367528 -0.00819445072
C 78.5474119 6.50571328 -0.143439025
C 78.5515874 7.92014755 -0.292646624
C 79.8133532 4.34967605 -0.117404219
C 79.8186042 5.79819593 -0.16092791
C 81.0553746 6.50889234 -0.302705385
C 81.0589603 7.93260436 -0.441729416
C 82.2547433 4.36483175 -0.388035878
C 82.303499 5.77472976 -0.39157356
C 83.5756348 6.50904962 -0.569421892
C 83.5075226 7.95892899 -0.522209652
C 84.8101967 4.34696739 -0.526174676
C 84.7937582 5.76736938 -0.619820153
C 86.07621 6.52491491 -0.638641043
C 86.006729 7.98042516 -0.60401342
C 87.3205301 4.36204173 -0.714272622
C 87.3476368 5.83549554 -0.679069775
C 88.5756785 6.55514419 -0.731768944
C 88.5482836 7.99068049 -0.709681702
C 89.8047636 4.3641932 -0.849920097
C 89.8172271 5.8343909 -0.703826665
C 91.0658911 6.56561697 -0.49850071
C 91.0622338 7.991233 -0.48042126
C 92.317279 4.33045073 -0.637461345
C 92.3267742 5.77924861 -0.494272048
C 93.5385209 6.57424384 -0.298012812
C 93.5672323 8.03797143 -0.168741229
C 94.7853271 4.4005771 -0.683885651
C 94.7853818 5.81333578 -0.409311294
C 96.0226818 6.55653944 -0.238154259
C 95.9946461 7.96381953 -0.13533871
C 97.2485578 4.36465357 -0.506812108
C 97.245216 5.79660976 -0.36678003
C 98.4853109 6.52013413 -0.331355293
C 98.4552101 7.93526794 -0.139835538
C 99.8102868 4.34460746 -0.531687525
C 99.7189375 5.79699737 -0.427317191
C 101.013554 6.46794261 -0.436248024
C 100.982419 7.9083968 -0.263058295
C 102.318535 4.34826925 -0.497021016
C 102.305217 5.77674834 -0.502646821
C 103.521526 6.49001304 -0.506966192
C 103.533801 7.94136235 -0.396439025
C 104.770081 4.32101137 -0.457584143
C 104.782382 5.78423446 -0.534783601
C 105.986222 6.50934497 -0.511464679
C 105.953906 7.91009603 -0.451581218
C 107.228611 4.31151238 -0.403998507
C 107.21106 5.74395933 -0.484866605
C 108.477389 6.4571013 -0.456185489
C 108.484059 7.89573972 -0.454223282
C 109.69275 4.31225428 -0.542729906
C 109.710394 5.75093793 -0.535673997
C 110.963663 6.4331456 -0.679987935
C 110.927942 7.91893961 -0.748694799
C 112.19886 4.33752248 -0.639666598
C 112.215705 5.78243911 -0.67768368
C 113.494361 6.45244316 -0.874322171
C 113.434047 7.91618164 -0.98448161
C 114.767118 4.24785251 -0.474013011
C 114.745249 5.71358663 -0.756967095
C 115.985774 6.45947833 -0.751643394
C 115.934248 7.88743848 -0.771399565
C 117.239033 4.34331517 -0.446736996
C 117.220304 5.74099053 -0.606731634
C 118.381226 6.50616181 -0.633983248
C 118.384142 7.94138627 -0.574113307
C 119.650436 4.34418223 -0.442839617
C 119.660536 5.80289545 -0.584642868
C 120.932057 6.5459541 -0.582672605
C 120.90467 7.94152022 -0.534307726
C 122.144358 4.39312126 -0.416293149
C 122.142321 5.84101992 -0.505635243
C 123.418777 6.51973272 -0.403374962
C 123.427835 7.96497686 -0.417796242
C 124.65534 4.34427016 -0.331319113
C 124.645533 5.75288338 -0.415438179
C 125.906922 6.5085702 -0.470683064
C 125.918913 7.93723821 -0.460690976
C 127.157272 4.31795757 -0.377703082
C 127.18555 5.77284858 -0.48668411
C 128.406739 6.4235808 -0.654159094
C 128.417986 7.87543243 -0.598209275
C 129.648873 4.29899956 -0.715882444
C 129.64947 5.72034441 -0.738573008
C 130.91252 6.46965757 -0.746614524
C 130.933366 7.88742675 -0.590740859
C 132.162668 4.29420782 -0.616798148
C 132.155166 5.76601852 -0.660888915
C 133.391828 6.49196624 -0.616324842
C 133.392784 7.93741852 -0.506989391
C 134.707835 4.33541363 -0.507429733
C 134.654373 5.76594062 -0.605329787
C 135.902817 6.50410631 -0.528240373
C 135.936231 7.94724543 -0.459269933
C 137.219496 4.31109789 -0.520444218
C 137.213432 5.77531523 -0.55035519
C 138.427332 6.53303671 -0.465290338
C 138.413891 7.97266505 -0.393404278
C 139.69274 4.32990615 -0.615382224
C 139.704495 5.7689785 -0.545113295
C 140.944056 6.51560865 -0.526285782
C 140.88944 7.96620526 -0.331465035
C 142.16957 4.3800006 -0.762458209
C 142.204287 5.79973457 -0.663500074
C 143.467349 6.49965395 -0.619107973
C 143.419388 7.93898329 -0.364565175
C 144.732224 4.37264614 -0.795688902
C 144.707139 5.8255616 -0.590677599
C 145.948554 6.5309415 -0.652753502
C 145.944427 7.93393714 -0.545131102
C 147.187028 4.32735903 -0.624084257
C 147.139711 5.80159255 -0.579120369
C 148.437492 6.55050681 -0.458286116
C 148.462471 7.98650036 -0.41242034
C 149.679048 4.34803709 -0.45095653
C 149.688445 5.7867952 -0.421558427
C 151.001123 6.50875712 -0.354595277
C 150.970038 7.91037881 -0.38863773
C 152.227226 4.33428699 -0.439083496
C 152.238452 5.81046447 -0.396271571
C 153.458286 6.48032556 -0.50840568
C 153.449958 7.97832566 -0.587429155
C 154.720096 4.29862047 -0.393246478
C 154.721009 5.777883 -0.391387616
C 155.94939 6.51481039 -0.405701058
C 155.957618 7.99462492 -0.481622505
C 157.218537 4.36809243 -0.26329242
C 157.198084 5.82556077 -0.339691334
C 158.411693 6.52909384 -0.392450398
C 158.427506 7.96767846 -0.46710014
C 159.73746 4.39172931 -0.259612803
C 159.665436 5.82677784 -0.417593653
C 160.895182 6.52348557 -0.368489006
C 160.88873 7.92918939 -0.518354746
C 162.156734 4.39291419 -0.183617642
C 162.143907 5.82267919 -0.251751192
C 163.409912 6.47234033 -0.188073614
C 163.409712 7.95346929 -0.25959192
C 164.626528 4.34952398 -0.0842984265
C 164.657747 5.75138038 -0.133052049
C 165.882243 6.47742573 -0.104437522
C 165.892296 7.90773178 -0.254935633
C 167.182661 4.36357915 0.0983898028
C 167.104849 5.80614187 0.151009084
C 168.352603 6.56593589 0.185173187
C 168.356117 7.97490337 0.0761586258
C 169.662167 4.41044329 0.212205499
C 169.670068 5.8751103 0.188590324
C 170.880596 6.59722491 0.251847668
C 170.85774 8.04837655 0.174959699
C 172.139415 4.42982249 0.218513159
C 172.133157 5.86205067 0.208743635
C 173.36622 6.52007265 0.155414966
C 173.395558 7.99532303 0.0637500018
C 174.624389 4.36632524 0.3050478
C 174.626636 5.81543867 0.166436252
C 175.859885 6.54684561 0.171591985
C 175.864915 7.98367901 0.123178848
C 177.127361 4.36629595 0.23599834
C 177.071835 5.81616773 0.186017802
C 178.344203 6.57330067 0.259390143
C 178.378977 7.98143978 0.215207994
C 179.605409 4.35586242 0.140178698
C 179.591767 5.82313065 0.175039779
C 180.846296 6.5711262 0.0738521622
C 180.881734 7.96776913 -0.0234546
C 182.114806 4.40246405 0.00771630918
C 182.116995 5.83434711 0.00821885548
C 183.367728 6.57526455 -0.0490850039
C 183.34663 7.97482889 -0.0331907923
C 184.59711 4.37015375 -0.0824463626
C 184.636515 5.80098206 -0.0817045983
C 185.894427 6.54575921 -0.118177832
C 185.853069 8.00088743 -0.0747836905
C 187.082077 4.37962834 -0.112134109
C 187.098926 5.78373547 -0.120846843
C 188.355768 6.5570124 -0.16084739
C 188.324947 7.97138597 -0.185411462
C 189.643536 4.36577525 -0.172568138
C 189.621096 5.78136051 -0.167336104
C 190.831562 6.47847832 -0.259860451
C 190.807828 7.9399551 -0.372248112
C 192.09578 4.34339741 -0.35993675
C 192.052883 5.82676935 -0.367362061
C 193.335145 6.54320544 -0.45041706
C 193.338331 7.96431651 -0.467309095
C 194.562991 4.37018567 -0.630026505
C 194.547237 5.80915757 -0.627167949
C 195.799237 6.51773975 -0.74083867
C 195.841223 7.94789049 -0.717258233
C 197.024433 4.38800829 -0.872851351
C 197.023493 5.7715685 -0.829819077
C 198.301258 6.48028599 -0.974059088
C 198.359084 7.95293504 -0.905208498
C 199.512489 4.37248006 -1.11654128
C 199.541191 5.84557326 -1.06649857
C 200.793947 6.5456823 -1.15827563
C 200.820787 8.00146807 -1.18506785
C 201.993723 4.35822154 -1.32649152
C 202.043669 5.8470291 -1.28826251
C 203.320315 6.51417623 -1.29730902
C 203.320959 7.96887726 -1.33819313
C 204.506791 4.31181226 -1.28343552
C 204.532266 5.75561143 -1.3130857
C 205.767938 6.47797863 -1.2891883
C 205.760769 7.93515413 -1.29939062
C 206.985672 4.28417471 -1.16337699
C 207.016827 5.73847975 -1.24636579
C 208.296854 6.47145731 -1.2357756
C 208.263858 7.92711098 -1.28415179
C 209.417912 4.27180312 -1.28099404
C 209.504019 5.75312749 -1.24327739
C 210.737718 6.48512025 -1.21701903
C 210.767122 7.95009018 -1.06766855
C 211.959103 4.32891942 -1.35526031
C 212.007338 5.7708491 -1.31532459
C 213.255154 6.47958125 -1.27903437
C 213.267584 7.95032331 -1.14304425
C 214.506933 4.34169191 -1.43577804
C 214.480382 5.81717805 -1.37208129
C 215.753064 6.56206134 -1.29482261
C 215.767161 7.97409229 -1.21514695
C 217.033227 4.3175468 -1.24938363
C 216.998891 5.80371974 -1.25126048
C 218.256124 6.556176 -1.19141045
C 218.311486 7.96560413 -1.10573557
C 219.536247 4.32338308 -1.05139358
C 219.500968 5.7763888 -1.06557262
C 220.762515 6.50056826 -0.990756046
C 220.770352 7.95357689 -0.821532297
C 222.047248 4.39947728 -1.00637412
C 222.010102 5.82191143 -0.929848146
C 223.235107 6.55643297 -0.841791678
C 223.196236 7.94241815 -0.689989164
C 224.437681 4.35664231 -0.895418037
C 224.48455 5.77876744 -0.859922454
C 225.733601 6.53205289 -0.814572045
C 225.715457 7.92104496 -0.753218458
C 226.989934 4.30403116 -0.892881753
C 226.978699 5.74885663 -0.889365269
C 228.235145 6.537456 -0.809788538
C 228.223531 7.97656715 -0.736852542
C 229.467833 4.34312907 -0.779831953
C 229.457203 5.7751128 -0.762340769
C 230.695721 6.57430308 -0.73876956
C 230.706266 7.97618371 -0.559499808
C 231.952892 4.32748047 -0.842717239
C 231.907367 5.87206342 -0.811471236
C 233.187495 6.55077208 -0.712499183
C 233.195553 7.95910851 -0.624108887
C 234.461838 4.31595511 -0.619981528
C 234.424051 5.76264302 -0.681662796
C 235.648736 6.48596994 -0.484767825
C 235.689365 7.9360122 -0.513312938
C 236.949958 4.33875559 -0.422080004
C 236.909912 5.76651891 -0.408634786
C 238.158518 6.50882107 -0.388509966
C 238.174901 7.93381398 -0.421033597
C 239.437232 4.32511285 -0.24157417
C 239.426213 5.77892889 -0.259662836
C 240.69896 6.47730746 -0.328375453
C 240.711763 7.92933272 -0.321431572
C 241.912975 4.32105261 -0.174353895
C 241.963849 5.77257483 -0.237219888
C 243.182842 6.48506929 -0.193177314
C 243.15134 7.92703709 -0.111348273
C 244.415104 4.33052536 -0.132697255
C 244.392797 5.75790744 -0.203212293
C 245.651157 6.46206879 -0.150702775
C 245.665394 7.93665006 0.0176923833
C 246.892143 4.26197075 -0.153460034
C 246.90723 5.70149466 -0.167670452
C 248.157814 6.41313328 -0.104042735
C 248.116383 7.87456694 0.00515593631
C 249.355014 8.66005254 -0.0925917839
C 249.34648 10.0941823 -0.164783476
C 1.18076353 10.7699446 -0.335015133
C 1.22159343 12.2213974 -0.264926446
C 2.44742575 8.58259364 -0.181911597
C 2.39427768 10.0135509 -0.345714811
C 3.66575572 10.7384982 -0.177966311
C 3.66444479 12.1879058 -0.0939695256
C 4.92715838 8.59783185 -0.277066015
C 4.94980342 10.021906 -0.279734407
C 6.17517523 10.7649047 -0.184053646
C 6.13881993 12.1934483 -0.153274267
C 7.41986898 8.57952372 -0.274491806
C 7.43405684 10.043304 -0.23169661
C 8.7083484 10.7772741 -0.229327302
C 8.68193004 12.166681 -0.248283035
C 9.94496393 8.57015122 -0.320413978
C 9.94652421 10.038092 -0.256021957
C 11.179129 10.73425 -0.200758194
C 11.1848774 12.1999659 -0.118108685
C 12.4663316 8.62890402 -0.266756159
C 12.44996 10.0745626 -0.114130957
C 13.6897019 10.8283407 -0.0485722274
C 13.6445671 12.262354 -0.0492195683
C 14.9474804 8.61857768 -0.0231261566
C 14.9089428 10.0518423 0.0383276011
C 16.135968 10.7887339 0.110480329
C 16.1589477 12.2944626 0.0182806598
C 17.4376605 8.61748192 0.0873892399
C 17.4120338 10.0741943 0.17782965
C 18.6786006 10.8001359 0.0975491033
C 18.6722432 12.2228886 -0.0153287543
C 19.91372 8.62320909 -0.114507489
C 19.9100346 10.1104234 -0.01473493
C 21.1937428 10.8621819 -0.0919128077
C 21.1877159 12.2696881 -0.142390695
C 22.4331839 8.63894713 -0.220869304
C 22.429271 10.0956075 -0.12950739
C 23.6792783 10.8260102 -0.133956569
C 23.6407109 12.2538167 -0.127875127
C 24.8978696 8.66603176 -0.228198444
C 24.9132712 10.0867505 -0.174575923
C 26.1278202 10.8152027 -0.191180312
C 26.1003169 12.2805296 -0.092053419
C 27.432168 8.65769302 -0.304275869
C 27.3544518 10.0948977 -0.222098242
C 28.6189007 10.8173041 -0.196670629
C 28.6237795 12.227193 -0.0205203969
C 29.8722238 8.61557633 -0.165929034
C 29.8382982 10.035564 -0.157833412
C 31.1188712 10.7949787 -0.0236049419
C 31.1183694 12.2241337 -0.0297845183
C 32.3492329 8.64358498 0.156635337
C 32.3373449 10.0609979 0.112133735
C 33.5822601 10.773155 0.150689486
C 33.5756171 12.2187314 0.0267603468
C 34.8696273 8.61045168 0.217417121
C 34.8487556 10.0251513 0.148213529
C 36.0740021 10.7881465 0.0743283842
C 36.1050627 12.2485889 -0.0405373522
C 37.3503195 8.66912162 0.0267230785
C 37.3555735 10.0789067 0.0570913663
C 38.5960864 10.8188036 0.0406479559
C 38.5980547 12.2659595 -0.0658115387
C 39.8542715 8.63830784 0.0078477118
C 39.8380528 10.0960726 -0.00181701547
C 41.1176202 10.8298499 -0.154792993
C 41.0908471 12.2387706 0.00134192619
C 42.3501817 8.64140068 -0.0901726975
C 42.3868075 10.1251944 -0.125745485
C 43.5772114 10.8683209 -0.02449557
C 43.5642807 12.2835454 0.160436283
C 44.7993264 8.6627619 -0.245068447
C 44.8617915 10.1071403 -0.131635064
C 46.0618319 10.8004671 0.0991771819
C 46.0289546 12.226173 0.254334138
C 47.3134582 8.70388517 -0.188499385
C 47.340812 10.1054958 -0.0204447009
C 48.5577294 10.8399055 0.128384432
C 48.5267028 12.24694 0.258743295
C 49.7682105 8.67672613 0.0724312787
C 49.8197507 10.0744275 0.167958129
C 51.0313579 10.7797739 0.291947831
C 50.9983715 12.2619167 0.339253315
C 52.2754032 8.65479375 0.222149939
C 52.3243467 10.1099859 0.342952989
C 53.5554719 10.8315059 0.443743161
C 53.5675214 12.2485394 0.562541468
C 54.7666291 8.71570461 0.337226211
C 54.7971718 10.1480327 0.374371816
C 56.0497903 10.8027955 0.418443303
C 56.0575622 12.2229972 0.467465792
C 57.3261849 8.6843428 0.359539531
C 57.3149766 10.1229723 0.379117941
C 58.6061888 10.8286039 0.446046417
C 58.622764 12.2674738 0.502731531
C 59.7899009 8.66211997 0.407209923
C 59.8283709 10.0683047 0.453254997
C 61.1303722 10.7713128 0.494747109
C 61.1176621 12.2066186 0.571310316
C 62.3153689 8.67972242 0.417864977
C 62.3708524 10.0648381 0.473736813
C 63.5709758 10.8408563 0.525332453
C 63.5837173 12.2683749 0.547630507
C 64.84456 8.63079531 0.360502626
C 64.7947053 10.0880729 0.518455066
C 66.0504359 10.8582501 0.58219629
C 66.0433544 12.2526578 0.52280899
C 67.3096559 8.64161522 0.314632771
C 67.2702977 10.077881 0.489771245
C 68.5528244 10.7922337 0.376862856
C 68.6016585 12.2307484 0.369969061
C 69.801546 8.66514939 0.141346893
C 69.8037331 10.0720191 0.158923177
C 71.0858283 10.8315913 0.0716893852
C 71.0937363 12.2707823 0.0506309969
C 72.3122744 8.69300848 -0.165885834
C 72.2990476 10.110831 -0.117154095
C 73.6078741 10.8504994 -0.122755613
C 73.561529 12.2858377 -0.158115567
C 74.8159184 8.69339957 -0.154966316
C 74.8824373 10.1349893 -0.0905534712
C 76.0884223 10.8041241 -0.197545985
C 76.1043392 12.2811235 -0.288770857
C 77.3191977 8.65085424 -0.248139194
C 77.3610198 10.1133636 -0.219208669
C 78.6005375 10.8541487 -0.18717658
C 78.5899883 12.2955524 -0.243365422
C 79.8011273 8.63219375 -0.425480662
C 79.8366579 10.0715473 -0.314207924
C 81.0790217 10.8287711 -0.346378633
C 81.1098401 12.2691439 -0.240856816
C 82.2929676 8.6558428 -0.464859323
C 82.3032206 10.1152269 -0.488309911
C 83.5454822 10.8190602 -0.507041169
C 83.5370384 12.2888316 -0.389621589
C 84.7596112 8.69358132 -0.599315541
C 84.7798502 10.1553639 -0.553697958
C 86.0575633 10.8613119 -0.533191127
C 86.0734257 12.2743803 -0.440475032
C 87.294795 8.72797358 -0.660983649
C 87.3143006 10.1780024 -0.623650363
C 88.556097 10.897358 -0.593363594
C 88.5590827 12.2936418 -0.541365958
C 89.7668789 8.72280708 -0.621983709
C 89.785369 10.1422364 -0.552456116
C 90.9876765 10.8974987 -0.437318078
C 91.0437592 12.2942312 -0.398442478
C 92.2948685 8.74303761 -0.287636828
C 92.252961 10.2052735 -0.239532984
C 93.5027581 10.8899437 -0.0934278787
C 93.5145572 12.299191 -0.0499294093
C 94.7522329 8.71566319 -0.0723573246
C 94.758148 10.1139458 -0.000291147186
C 96.0144181 10.8949838 -0.0089069902
C 95.989706 12.3476201 -0.0294044663
C 97.2032007 8.68855785 -0.0950257027
C 97.2433104 10.1588108 -0.0826976221
C 98.4583127 10.8532178 -0.145429253
C 98.4237454 12.311313 -0.13987985
C 99.7166655 8.6100655 -0.16062089
C 99.7557183 10.1103147 -0.207146306
C 100.966326 10.8155731 -0.36823209
C 100.964286 12.2391061 -0.339481015
C 102.225514 8.65659021 -0.346059179
C 102.219881 10.0844908 -0.39330547
C 103.503138 10.7804921 -0.370290224
C 103.503389 12.2196189 -0.346232455
C 104.755638 8.63511684 -0.410054599
C 104.772791 10.096541 -0.340909159
C 106.003851 10.7815808 -0.394756586
C 105.967505 12.2184618 -0.47707567
C 107.159389 8.614859 -0.456319488
C 107.215291 10.0586907 -0.482631009
C 108.469099 10.7591713 -0.462386804
C 108.470181 12.210466 -0.531991634
C 109.705094 8.64312946 -0.546195826
C 109.713741 10.0627688 -0.550435631
C 110.925657 10.8153661 -0.620295106
C 110.921564 12.228366 -0.672482151
C 112.22572 8.60556216 -0.82962958
C 112.18545 10.0631214 -0.727781404
C 113.445956 10.8573922 -0.807160054
C 113.455198 12.2617322 -0.82458806
C 114.68777 8.63576086 -0.947686868
C 114.690799 10.0716567 -0.88108136
C 115.918751 10.85204 -0.755692501
C 115.921282 12.2635102 -0.933028184
C 117.133101 8.6323871 -0.6026752
C 117.184532 10.1347679 -0.592360807
C 118.420921 10.8568091 -0.540867183
C 118.434595 12.2693215 -0.660061444
C 119.65347 8.65740919 -0.56696175
C 119.674394 10.1035863 -0.589093812
C 120.923061 10.8299027 -0.504601107
C 120.973765 12.2662932 -0.55263971
C 122.171676 8.64496404 -0.459198406
C 122.151179 10.1055089 -0.505950836
C 123.379849 10.8315815 -0.50493296
C 123.418121 12.2458739 -0.54210343
C 124.684063 8.62876554 -0.441688489
C 124.659572 10.0824152 -0.405171598
C 125.915337 10.7794859 -0.295979696
C 125.927651 12.2531573 -0.24819799
C 127.16252 8.63088354 -0.503165171
C 127.178448 10.092934 -0.419650701
C 128.436571 10.7841391 -0.348913453
C 128.469924 12.2515056 -0.21383233
C 129.667785 8.61535732 -0.544725703
C 129.694836 10.0658099 -0.406536049
C 130.967921 10.8079436 -0.358549854
C 130.98789 12.2339652 -0.21837838
C 132.176718 8.65433453 -0.522092829
C 132.209015 10.0725071 -0.521482991
C 133.413223 10.8202146 -0.459295441
C 133.418111 12.2705346 -0.315562737
C 134.662131 8.67050239 -0.324253197
C 134.674066 10.1220273 -0.368543996
C 135.936494 10.8155518 -0.407347879
C 135.942939 12.2368069 -0.286803672
C 137.179685 8.67002558 -0.425244322
C 137.16822 10.0874745 -0.385558168
C 138.34949 10.8309016 -0.288980555
C 138.374691 12.2619146 -0.201195516
C 139.63307 8.68743925 -0.367264946
C 139.644628 10.1057897 -0.329750107
C 140.925359 10.8378337 -0.285653857
C 140.900079 12.2867198 -0.145995591
C 142.141831 8.7161539 -0.275237321
C 142.187994 10.1272216 -0.275271355
C 143.444844 10.8362917 -0.252043314
C 143.419389 12.229524 -0.141351452
C 144.680425 8.65259505 -0.422496612
C 144.657212 10.111484 -0.334372958
C 145.896771 10.8448487 -0.347718632
C 145.929607 12.2215838 -0.27370175
C 147.188811 8.68653889 -0.468022691
C 147.180156 10.1201841 -0.402775349
C 148.452448 10.8310097 -0.419241843
C 148.428335 12.259901 -0.372158111
C 149.725951 8.64093132 -0.389606058
C 149.712973 10.100005 -0.471812373
C 150.950625 10.8489975 -0.598835859
C 150.935023 12.2693506 -0.486504965
C 152.185168 8.68437867 -0.566460249
C 152.157193 10.1176159 -0.673643977
C 153.432601 10.8255506 -0.613718313
C 153.443607 12.2984559 -0.41560189
C 154.71841 8.68956326 -0.615170044
C 154.680335 10.1339643 -0.678729511
C 155.879455 10.8618413 -0.629297114
C 155.906848 12.3390722 -0.577490633
C 157.191184 8.72690537 -0.446992743
C 157.146449 10.170235 -0.621700284
C 158.385041 10.8793208 -0.70088183
C 158.418096 12.3042797 -0.657670745
C 159.656803 8.63460186 -0.57666453
C 159.608924 10.1197415 -0.685298027
C 160.895959 10.8411222 -0.666179752
C 160.889963 12.2918612 -0.663266599
C 162.16493 8.64350107 -0.465960746
C 162.121456 10.0699552 -0.570265446
C 163.385478 10.8069999 -0.534050358
C 163.365348 12.2212045 -0.452836866
C 164.638171 8.65828958 -0.274021704
C 164.649978 10.1380916 -0.35855316
C 165.904934 10.8003693 -0.198793131
C 165.906269 12.2488542 -0.231856
C 167.121969 8.64742792 -0.138372925
C 167.137779 10.0814307 -0.166156627
C 168.373261 10.8558207 -0.0809281358
C 168.414568 12.3047222 -0.107576232
C 169.610664 8.67368076 0.107083585
C 169.619465 10.118996 0.0688251202
C 170.882855 10.8310444 0.13806872
C 170.880159 12.2936502 0.175070559
C 172.114033 8.73667341 0.112574512
C 172.123236 10.1461163 0.0588679369
C 173.391012 10.8586913 -0.00819437409
C 173.368171 12.2789075 0.0394444607
C 174.645202 8.69766587 0.0880193246
C 174.620546 10.1331654 0.106078797
C 175.870987 10.8350577 0.140442736
C 175.857635 12.2823383 0.0527925568
C 177.142951 8.68542551 0.21754753
C 177.093206 10.102949 0.155006702
C 178.326852 10.8439793 0.162977082
C 178.348482 12.2696485 0.126344502
C 179.558835 8.72261662 0.102245824
C 179.560999 10.1344952 0.140480202
C 180.824393 10.8369992 0.0607919769
C 180.830226 12.2844532 -0.0028730316
C 182.126097 8.65042274 -0.00804297608
C 182.047837 10.0744084 -0.0335355349
C 183.281811 10.8093421 -0.0526944587
C 183.347333 12.2669804 -0.0330322763
C 184.563152 8.65984058 -0.0424996606
C 184.590381 10.0708442 -0.0819731529
C 185.836055 10.7889044 -0.174014006
C 185.833641 12.2286837 -0.204730298
C 187.081378 8.71213849 -0.12185262
C 187.057062 10.1244546 -0.202708517
C 188.297398 10.8360158 -0.267484318
C 188.295621 12.2966463 -0.300667396
C 189.55988 8.64343345 -0.309650042
C 189.560434 10.1159277 -0.321442965
C 190.812329 10.8223621 -0.40801775
C 190.839243 12.2650543 -0.460372591
C 192.102142 8.65639339 -0.428261169
C 192.116936 10.112259 -0.458619308
C 193.348559 10.853835 -0.497230017
C 193.354179 12.246431 -0.578464049
C 194.588771 8.70437967 -0.525804168
C 194.631262 10.1547556 -0.560945159
C 195.859949 10.8623903 -0.563267982
C 195.846574 12.2727768 -0.554803402
C 197.084465 8.66306011 -0.686890789
C 197.100825 10.0948838 -0.647192411
C 198.343455 10.8378775 -0.809315883
C 198.338368 12.2870316 -0.811775258
C 199.608376 8.69425372 -1.06217711
C 199.600649 10.1510916 -1.02684574
C 200.831078 10.8763003 -1.13173653
C 200.788044 12.2866096 -1.1919657
C 202.071713 8.6779553 -1.28470782
C 202.044359 10.1164934 -1.25181943
C 203.279495 10.8384106 -1.38542199
C 203.310106 12.2532091 -1.33000073
C 204.5662 8.71423156 -1.37727254
C 204.550748 10.124979 -1.3907957
C 205.79477 10.8319449 -1.28702049
C 205.801579 12.2717395 -1.139602
C 207.029016 8.67159978 -1.28723559
C 207.044481 10.1165007 -1.2415727
C 208.308743 10.841182 -1.08116336
C 208.316348 12.3067315 -0.929206278
C 209.501493 8.64605857 -1.12686544
C 209.516052 10.0973786 -1.08350654
C 210.813323 10.8392923 -0.949033938
C 210.791282 12.2740278 -0.915945577
C 211.996025 8.65670859 -1.07824568
C 212.039049 10.0955421 -0.910276262
C 213.288729 10.7954127 -0.896360247
C 213.26371 12.2204246 -0.685103413
C 214.514953 8.63680318 -1.10080777
C 214.559583 10.0664045 -0.978088146
C 215.791829 10.7900077 -0.809757734
C 215.725817 12.2532455 -0.700068633
C 217.063285 8.68331476 -1.15932981
C 217.047117 10.087421 -0.922135205
C 218.250086 10.8743514 -0.875846281
C 218.205982 12.2956687 -0.854610999
C 219.551532 8.68144753 -0.868420679
C 219.485811 10.0843839 -0.812851936
C 220.712739 10.8217734 -0.685289618
C 220.702766 12.2319859 -0.700588149
C 221.999668 8.69433947 -0.679977287
C 221.943379 10.1329472 -0.616049761
C 223.193981 10.8306028 -0.63963605
C 223.202569 12.2806874 -0.640759545
C 224.48813 8.66306278 -0.675932291
C 224.450642 10.1231541 -0.661849496
C 225.71261 10.8690967 -0.70331116
C 225.741076 12.3019976 -0.677333537
C 226.940472 8.69403434 -0.725265441
C 226.952748 10.1331539 -0.676468773
C 228.191076 10.8067294 -0.480596534
C 228.204525 12.2526401 -0.324465975
C 229.397057 8.69423451 -0.571837316
C 229.42039 10.1121652 -0.489370685
C 230.675076 10.8723984 -0.476912524
C 230.728416 12.3041859 -0.389830496
C 231.994194 8.65816162 -0.586969906
C 231.987831 10.1599109 -0.49923793
C 233.225839 10.8394851 -0.401965491
C 233.212465 12.2860002 -0.243953013
C 234.444073 8.69424766 -0.585919336
C 234.45137 10.1320355 -0.465524731
C 235.685351 10.8621011 -0.390759826
C 235.704202 12.2900625 -0.190960937
C 236.924906 8.63113092 -0.434864355
C 236.878548 10.0886272 -0.407963987
C 238.172985 10.7886534 -0.293012456
C 238.195867 12.255432 -0.267556069
C 239.461025 8.60441484 -0.391994162
C 239.460957 10.0109612 -0.306982337
C 240.65773 10.7962976 -0.102926573
C 240.683032 12.2488338 -0.0477074584
C 241.886426 8.64033994 -0.208062889
C 241.907272 10.1141703 -0.181072268
C 243.213126 10.8568604 -0.153786955
C 243.161102 12.311421 -0.0930568078
C 244.386306 8.7141168 0.00490801767
C 244.447094 10.1385221 -0.0254620424
C 245.640277 10.892282 0.0246816773
C 245.590086 12.2794231 -0.0246598137
C 246.916789 8.66304691 0.0312874462
C 246.888159 10.1514765 -0.00769072835
C 248.138731 10.8739256 -0.136968801
C 248.151885 12.3022433 -0.162424014
C 249.379403 12.9707531 -0.271137676
C 0.0340224155 14.3834398 -0.165829222
C 1.22942895 15.1048075 -0.0411824556
C 1.17716142 16.5500512 -0.0332041281
C 2.45034778 12.9598572 -0.13171843
C 2.48154056 14.3784525 -0.0612376812
C 3.70363072 15.1159441 -0.0423365901
C 3.68808216 16.5717931 -0.142773079
C 4.93064519 12.9177954 -0.0830643603
C 4.96921263 14.4012756 -0.0856941467
C 6.18316302 15.1319691 -0.16926289
C 6.19923588 16.5595297 -0.166401645
C 7.39938495 12.9204106 -0.272635591
C 7.42696786 14.3802878 -0.255143241
C 8.68003739 15.0731592 -0.266826637
C 8.68716908 16.4940543 -0.290883408
C 9.89804724 12.8845465 -0.195166256
C 9.9003461 14.3380527 -0.215170674
C 11.1398618 15.0879682 -0.111613313
C 11.1402919 16.5576099 -0.0295062906
C 12.3928242 12.9496763 -0.125121944
C 12.4109585 14.4081929 -0.0703879255
C 13.6246972 15.110311 0.0227651659
C 13.613204 16.5564439 0.0762156364
C 14.8690454 12.9493386 0.0228640566
C 14.9254195 14.4087956 0.0283042697
C 16.1750687 15.1592083 0.0100084148
C 16.1372428 16.6065289 0.102887908
C 17.4320629 13.0070869 -0.0446178283
C 17.4714465 14.4607404 -0.0618963869
C 18.6776256 15.1717383 -0.0777903344
C 18.6225938 16.6049534 0.0289870776
C 19.9105042 12.9778812 -0.156731362
C 19.9077779 14.4652032 -0.141895954
C 21.162427 15.1685046 -0.170677368
C 21.1763422 16.5970303 -0.129877539
C 22.3883266 12.991376 -0.120021531
C 22.4209646 14.4298743 -0.210962863
C 23.6370429 15.1579045 -0.121908255
C 23.6571605 16.6072467 -0.113995084
C 24.8699794 12.9807857 -0.0460469121
C 24.8863068 14.4112035 0.050242984
C 26.1523976 15.1515328 -0.0200071658
C 26.1700084 16.5715058 -0.122340424
C 27.376797 12.9665769 -0.0132009586
C 27.4048403 14.412004 0.0386562792
C 28.6613657 15.0781615 0.0963181309
C 28.6087946 16.5091239 0.105921452
C 29.8889462 12.9332427 -0.0196387321
C 29.9141387 14.3336602 -0.00144015833
C 31.1267331 15.0893868 -0.0371190479
C 31.1661365 16.5505962 0.0571482933
C 32.3258486 12.9622065 -0.00349075386
C 32.3436651 14.3986731 -0.0152450681
C 33.6071748 15.1301479 0.0323521711
C 33.664601 16.563741 0.0727849822
C 34.8114986 12.9286151 0.0174404204
C 34.8643026 14.3784815 -0.0328950704
C 36.0904409 15.1441333 -0.0140693762
C 36.1126577 16.6443304 0.123251711
C 37.3495839 13.0257334 -0.0555870987
C 37.3405532 14.4423366 0.0289899063
C 38.5925804 15.1596441 0.218025756
C 38.6005634 16.5974269 0.255045666
C 39.858458 12.9325725 0.0539063914
C 39.7911939 14.4112827 0.177150703
C 41.0346795 15.11512 0.334859633
C 41.0420499 16.5816232 0.431497957
C 42.281444 12.9758243 0.139459192
C 42.2602135 14.373288 0.359186036
C 43.4875177 15.0885334 0.530383915
C 43.4766871 16.5083135 0.683026243
C 44.7642241 12.9932387 0.380829863
C 44.7430996 14.3873018 0.573595448
C 46.0399135 15.0788592 0.686189709
C 46.0159786 16.5292639 0.720186535
C 47.269797 12.9234995 0.374663379
C 47.2776354 14.3331581 0.601817133
C 48.4976407 15.0625392 0.621156029
C 48.5502862 16.4891176 0.726980821
C 49.7689788 12.9496671 0.445140983
C 49.7380901 14.3512882 0.606554626
C 50.9727131 15.062059 0.705173064
C 51.0426543 16.4990075 0.718522025
C 52.2699356 12.9790736 0.583973524
C 52.2877145 14.4073167 0.720913191
C 53.5677745 15.1383694 0.593890943
C 53.5169475 16.5685986 0.53378169
C 54.8050094 12.9898849 0.528188639
C 54.8298203 14.429827 0.504650929
C 56.0962387 15.1211423 0.382952277
C 56.0452116 16.5754442 0.462137837
C 57.3363546 12.9117652 0.456132464
C 57.3617994 14.3707278 0.338254011
C 58.596518 15.1427367 0.408977593
C 58.6114709 16.554398 0.430643791
C 59.8911163 13.0107672 0.462299899
C 59.8609111 14.4362564 0.480228502
C 61.0906835 15.1298765 0.594974901
C 61.0668214 16.5089738 0.508103855
C 62.3106679 12.9382134 0.607316887
C 62.3291131 14.4042968 0.64760442
C 63.5744402 15.0967285 0.561993549
C 63.5591323 16.5881591 0.523251253
C 64.8346571 12.9904961 0.503579442
C 64.8216095 14.4378799 0.514476016
C 66.118575 15.1272344 0.48887478
C 66.0376877 16.5978663 0.434279594
C 67.3138318 12.9508303 0.46771039
C 67.2995371 14.3962254 0.443663203
C 68.5811665 15.1201409 0.238765299
C 68.5959379 16.57822 0.230670335
C 69.8841167 12.9825751 0.161578551
C 69.8254581 14.4321444 0.0706567037
C 71.0798208 15.2202456 -0.148497741
C 71.1133259 16.6243416 -0.0154602817
C 72.3129762 12.9829725 -0.114822872
C 72.3057385 14.4581315 -0.228609135
C 73.5546318 15.1682515 -0.223482273
C 73.5557645 16.606207 -0.219374372
C 74.8017401 13.0041117 -0.245567276
C 74.8120006 14.4747115 -0.237944193
C 76.0562229 15.2087899 -0.253019128
C 76.0224896 16.6253714 -0.272280961
C 77.3583176 13.0290811 -0.335654737
C 77.3182707 14.4704195 -0.353594559
C 78.5956342 15.1598035 -0.319705836
C 78.5227377 16.6283807 -0.328189339
C 79.8299197 13.0197331 -0.253898665
C 79.8410638 14.447133 -0.264976246
C 81.0430303 15.2088656 -0.295001382
C 81.0588676 16.6283278 -0.349600132
C 82.3039383 12.9938214 -0.252833734
C 82.3213324 14.4403505 -0.261955279
C 83.5394595 15.1822514 -0.265130563
C 83.5316639 16.6080412 -0.2167793
C 84.7927932 13.0035984 -0.344554177
C 84.7884253 14.4866858 -0.297496155
C 86.0560485 15.1716839 -0.420844815
C 86.0703331 16.616041 -0.299995527
C 87.2987566 12.9678502 -0.497500144
C 87.3090807 14.4578641 -0.519219147
C 88.5282216 15.1973977 -0.484829355
C 88.5345883 16.6396663 -0.462173764
C 89.810181 13.0550947 -0.427979845
C 89.7866572 14.4946609 -0.512897573
C 91.0395437 15.1695348 -0.489157164
C 91.0081146 16.6689821 -0.577326473
C 92.2611919 12.9853879 -0.225606319
C 92.286219 14.4742266 -0.359905443
C 93.4770898 15.2299818 -0.224299072
C 93.5228319 16.6280431 -0.266194493
C 94.7187558 13.0380001 -0.0393030337
C 94.7382124 14.5058787 -0.159912147
C 95.9735446 15.2350517 -0.209512702
C 95.9924506 16.6588605 -0.242240034
C 97.2062864 13.0609503 -0.121734042
C 97.2043329 14.4678882 -0.19530471
C 98.4371676 15.1925642 -0.267477426
C 98.4551062 16.6422329 -0.28791425
C 99.7008834 12.9872881 -0.204190056
C 99.6753126 14.4261758 -0.233342411
C 100.932657 15.1609023 -0.367982234
C 100.92494 16.570507 -0.342012782
C 102.218675 12.9764309 -0.348617837
C 102.189533 14.4163079 -0.388768154
C 103.456879 15.1394559 -0.371479322
C 103.485652 16.5869578 -0.369403781
C 104.724517 12.9615285 -0.411994527
C 104.676334 14.3903427 -0.470354507
C 105.910201 15.1385782 -0.554042384
C 105.909534 16.6223995 -0.505304927
C 107.217577 12.9261416 -0.620388369
C 107.19302 14.427488 -0.588429531
C 108.465272 15.0999844 -0.565369973
C 108.478931 16.5649382 -0.61574204
C 109.681563 12.9205181 -0.566366458
C 109.695414 14.405462 -0.541225014
C 110.964489 15.1240048 -0.637084901
C 110.93142 16.5552339 -0.733189281
C 112.138223 12.959176 -0.694386929
C 112.157955 14.3772838 -0.721211555
C 113.384031 15.0994735 -0.845577119
C 113.397998 16.5774164 -0.827438411
C 114.675958 13.0275068 -0.969386366
C 114.669045 14.4558161 -0.916479599
C 115.953395 15.1596124 -0.909419883
C 115.92384 16.5881273 -0.782503544
C 117.199644 12.9694251 -0.824624349
C 117.205967 14.430942 -0.884950417
C 118.454616 15.1421994 -0.727596156
C 118.449693 16.5922433 -0.759604131
C 119.706523 12.9992377 -0.604550512
C 119.688249 14.424246 -0.688916117
C 120.918814 15.1101195 -0.636659695
C 120.940647 16.5632251 -0.676197535
C 122.204904 12.9611038 -0.62493116
C 122.184183 14.3901724 -0.583048015
C 123.418767 15.1311554 -0.49290055
C 123.448207 16.583314 -0.484123846
C 124.706994 12.9705493 -0.328760966
C 124.671126 14.3723133 -0.342830333
C 125.94845 15.1089464 -0.211832766
C 125.921953 16.5508393 -0.190040465
C 127.193302 12.9394948 -0.185037759
C 127.185922 14.3881293 -0.140408218
C 128.459622 15.124323 -0.169730033
C 128.472158 16.5528679 -0.165442541
C 129.76158 12.967445 -0.193047728
C 129.72356 14.4186483 -0.14045444
C 130.953916 15.1531989 -0.118943239
C 130.984061 16.6060861 -0.193575692
C 132.177572 12.9825939 -0.173885258
C 132.198157 14.4448205 -0.106164105
C 133.402655 15.2306589 -0.104080655
C 133.43285 16.6502333 -0.118891326
C 134.654071 12.9779777 -0.267130904
C 134.6373 14.4331449 -0.138368084
C 135.905246 15.1092055 -0.0756332158
C 135.927155 16.5642598 -0.020592359
C 137.116035 12.9329493 -0.196878732
C 137.128073 14.3734626 -0.0405469101
C 138.362266 15.1541427 0.0749889126
C 138.376621 16.5812455 0.019037935
C 139.616591 12.9389275 -0.103563138
C 139.615757 14.3893281 -0.0231804412
C 140.859903 15.0860917 -0.0673495429
C 140.885377 16.5392429 -0.0115873227
C 142.168003 12.9838208 -0.0501278541
C 142.154531 14.3901081 -0.0730960549
C 143.394586 15.115376 -0.179181057
C 143.419884 16.5493347 -0.184018503
C 144.668434 12.9381388 -0.11877972
C 144.635957 14.4268087 -0.0698012138
C 145.978249 15.067363 -0.14607442
C 145.932661 16.5070992 -0.204809071
C 147.139124 12.9412089 -0.279140146
C 147.196262 14.3818328 -0.189044246
C 148.489747 15.0996736 -0.155266324
C 148.472792 16.5366694 -0.11166161
C 149.708476 12.9701687 -0.358665296
C 149.725592 14.3864847 -0.126639981
C 150.927028 15.1576906 -0.0935463799
C 150.936919 16.5914605 -0.0432011226
C 152.16781 12.9661853 -0.308234373
C 152.213561 14.459957 -0.181122335
C 153.461297 15.1649418 -0.276242113
C 153.406651 16.5778583 -0.165792514
C 154.668669 13.0460343 -0.477225559
C 154.693378 14.4707635 -0.38176836
C 155.975524 15.1440854 -0.481350919
C 155.889024 16.593449 -0.428313861
C 157.174785 13.0162193 -0.577944406
C 157.195385 14.4414444 -0.405696512
C 158.438776 15.1401084 -0.384214876
C 158.389211 16.5938644 -0.344450531
C 159.635207 13.0548845 -0.665296925
C 159.657674 14.4732885 -0.506388926
C 160.878227 15.1284449 -0.40875696
C 160.89539 16.5913098 -0.339464864
C 162.151038 12.9793245 -0.527278573
C 162.141512 14.4307347 -0.459558381
C 163.383462 15.1684009 -0.431869196
C 163.391013 16.5988577 -0.281118902
C 164.607396 12.9478861 -0.350241252
C 164.611546 14.4151446 -0.327969755
C 165.883103 15.1400437 -0.191757725
C 165.889392 16.6132488 -0.0918409455
C 167.139716 12.9572564 -0.179173254
C 167.12617 14.4078063 -0.165994318
C 168.299325 15.1758471 -0.054714144
C 168.304788 16.587662 -0.0413707401
C 169.625534 12.9804327 0.0297688277
C 169.568804 14.4498231 0.0486805191
C 170.851295 15.1429517 0.0557670353
C 170.858678 16.5933854 0.0830314311
C 172.130263 12.9712701 0.116031796
C 172.142754 14.408352 0.0492910804
C 173.39772 15.1882282 -0.0477603585
C 173.388387 16.6072526 -0.0207093129
C 174.600318 13.0334116 -0.00178631614
C 174.647077 14.4629206 -0.0507003419
C 175.89102 15.1894502 -0.0571725123
C 175.910893 16.6173495 -0.129805457
C 177.116271 13.0033511 0.0135680936
C 177.103542 14.444329 0.0065180074
C 178.371688 15.1741883 -0.037316799
C 178.338681 16.5993219 -0.0812533809
C 179.596326 13.0493811 0.106463578
C 179.617574 14.4607572 -0.0267970049
C 180.840516 15.1291557 -0.226266058
C 180.869078 16.5966242 -0.243728789
C 182.066885 12.9750927 -0.0336734174
C 182.085195 14.4417135 -0.173519983
C 183.36934 15.1508659 -0.185929884
C 183.396533 16.5937611 -0.145909847
C 184.584044 12.9892898 -0.133846361
C 184.63352 14.4261754 -0.105402428
C 185.861768 15.1795884 -0.0204923562
C 185.863631 16.6181874 -0.0451136338
C 187.063257 13.0001259 -0.220034626
C 187.110091 14.4261574 -0.165572233
C 188.364984 15.1481224 -0.272668843
C 188.335368 16.5839604 -0.333509762
C 189.554472 12.9864971 -0.372398549
C 189.605478 14.4459689 -0.344622957
C 190.823999 15.1874144 -0.451639669
C 190.820478 16.5812204 -0.44581106
C 192.110999 12.9509403 -0.5355834
C 192.079583 14.4269028 -0.571440928
C 193.3105 15.1645342 -0.636570722
C 193.317033 16.6175601 -0.58485948
C 194.579967 13.0125744 -0.56162612
C 194.536594 14.4436337 -0.718614366
C 195.810339 15.1685374 -0.771964887
C 195.814509 16.5876464 -0.725816647
C 197.097367 12.9978053 -0.690359688
C 197.046661 14.4336436 -0.788835883
C 198.302154 15.1303301 -0.92934866
C 198.331809 16.5591589 -0.94667506
C 199.576578 12.9840339 -1.00814775
C 199.544394 14.4099165 -1.0412312
C 200.787975 15.1802021 -1.16253409
C 200.794199 16.6578099 -1.22299597
C 202.052395 13.0514803 -1.37270482
C 202.015343 14.4704297 -1.24056258
C 203.29818 15.1695899 -1.10772476
C 203.276901 16.6234221 -1.08666727
C 204.5465 12.9648484 -1.17001089
C 204.523478 14.4185632 -1.05262302
C 205.739602 15.1277996 -0.961459788
C 205.723615 16.5774113 -0.902505767
C 207.039856 13.0029062 -1.00917647
C 207.027946 14.45866 -0.925824215
C 208.263759 15.1536474 -0.813959974
C 208.283352 16.5997886 -0.775049684
C 209.527911 13.0115672 -0.877971901
C 209.545041 14.4619497 -0.720770947
C 210.757204 15.1707909 -0.620129942
C 210.790292 16.6222123 -0.592315376
C 212.041399 12.9913131 -0.651303586
C 211.991492 14.4016499 -0.590517324
C 213.269227 15.1218408 -0.427379736
C 213.256947 16.5386738 -0.404494795
C 214.510265 12.9601226 -0.556597717
C 214.530139 14.3705969 -0.458992444
C 215.737645 15.1401932 -0.500335415
C 215.714352 16.5483031 -0.359107663
C 216.960817 12.9961395 -0.783166644
C 216.983192 14.4454825 -0.646256405
C 218.227662 15.1423661 -0.453902931
C 218.229309 16.5957361 -0.309404794
C 219.490718 13.0111525 -0.710414377
C 219.485239 14.4340306 -0.548945248
C 220.702414 15.1495358 -0.499232298
C 220.705766 16.5905387 -0.413241514
C 221.927098 12.9701147 -0.629419782
C 221.964905 14.3975421 -0.519834616
C 223.23341 15.1541863 -0.419900139
C 223.236322 16.6299247 -0.217976258
C 224.467373 12.9876143 -0.647405424
C 224.474725 14.4219627 -0.490438568
C 225.712776 15.1397675 -0.372566206
C 225.729947 16.5996854 -0.269649231
C 227.00411 13.0182519 -0.462542837
C 226.949541 14.4599632 -0.342073691
C 228.182051 15.1784868 -0.297293028
C 228.204399 16.6423194 -0.201700916
C 229.454466 12.9988745 -0.26629458
C 229.417712 14.4457476 -0.174499312
C 230.725636 15.1597271 -0.00712771255
C 230.71926 16.5917348 0.0754407121
C 231.958278 12.9848492 -0.239714397
C 231.96845 14.4548812 -0.0948769855
C 233.196361 15.1608713 0.0753921249
C 233.204804 16.5773177 0.221463477
C 234.440648 13.0324617 -0.0981740835
C 234.47533 14.4060259 0.0559506899
C 235.724426 15.1405813 0.205630435
C 235.669136 16.5622281 0.419485286
C 236.92435 12.9927238 -0.119312293
C 236.933354 14.4008488 0.160164823
C 238.210027 15.1349175 0.275534095
C 238.173152 16.5785262 0.417851098
C 239.418265 12.9276553 0.019539618
C 239.445473 14.3660875 0.160274382
C 240.620777 15.0968527 0.0951300065
C 240.655195 16.5551166 0.21618017
C 241.888817 13.0118261 -0.0819336505
C 241.915506 14.4138947 -0.0335362545
C 243.141143 15.1601649 0.0110576631
C 243.111123 16.614114 0.121407676
C 244.38119 12.9946623 -0.107690238
C 244.387479 14.4245482 -0.0554625263
C 245.637408 15.127755 -0.0267400589
C 245.629911 16.602978 -0.028174211
C 246.865991 13.0098445 -0.00755515565
C 246.909898 14.4492708 -0.0411861647
C 248.180937 15.1287027 -0.136085634
C 248.155392 16.6328698 -0.12598873
C 249.384215 17.3061551 -0.126907379
C 249.386407 18.7263017 -0.263467867
C 1.22155371 19.4759915 -0.297274407
C 1.20265372 20.9088935 -0.344318663
C 2.44234253 17.2649598 -0.125401072
C 2.46534425 18.7153236 -0.278038916
C 3.73294922 19.4167096 -0.253390459
C 3.72993274 20.8698362 -0.298549874
C 4.93104769 17.2947861 -0.196197152
C 4.99356759 18.7360149 -0.216906197
C 6.26635184 19.4255731 -0.278621705
C 6.23417273 20.8625228 -0.256243656
C 7.47636137 17.2312204 -0.267952094
C 7.49633816 18.701883 -0.300374989
C 8.74029572 19.4347389 -0.207249902
C 8.71302446 20.8582913 -0.173686332
C 9.95606966 17.251 -0.166146516
C 9.94918961 18.6914474 -0.123536184
C 11.1762102 19.4567361 -0.0242201205
C 11.206726 20.8985863 -0.0521055021
C 12.3744445 17.2711059 0.118334241
C 12.3897451 18.7367352 0.133127636
C 13.6653432 19.4246124 0.105664999
C 13.6971616 20.869283 0.0677715972
C 14.8618126 17.2845034 0.025069564
C 14.9307622 18.7572052 0.0527597228
C 16.1589412 19.4755735 0.116274053
C 16.1990417 20.8938456 0.0606531984
C 17.3401785 17.320146 0.163632043
C 17.3904821 18.7613745 0.188332269
C 18.646831 19.4474038 0.243294259
C 18.6452042 20.9191983 0.244572184
C 19.8501633 17.328842 -0.0514536261
C 19.823616 18.756834 0.16432059
C 21.1006329 19.4373105 0.148432994
C 21.1297241 20.8408704 0.242341817
C 22.4350675 17.295289 -0.0863996295
C 22.3526315 18.7399527 0.0479660152
C 23.6143704 19.4355314 0.0811138324
C 23.6762446 20.8722286 0.146472697
C 24.9109228 17.2857944 -0.0297003362
C 24.8846767 18.7232922 0.0939436543
C 26.1428315 19.4474737 0.190978
C 26.1581747 20.8421798 0.249386116
C 27.4031098 17.2880902 0.0124698783
C 27.4046716 18.7177355 0.195942353
C 28.689872 19.3905642 0.330520468
C 28.6671957 20.8247518 0.458925885
C 29.8873226 17.2578938 0.154652718
C 29.9348964 18.6989614 0.276179649
C 31.1968001 19.4333223 0.244957774
C 31.1542964 20.8706441 0.298946082
C 32.3811374 17.2620801 0.033526016
C 32.4025722 18.7173994 0.138149418
C 33.6782807 19.4549364 0.146465367
C 33.6704326 20.8987608 0.240722119
C 34.8792597 17.3442239 0.094873292
C 34.9249488 18.774243 0.106760542
C 36.1480456 19.4841406 0.178389847
C 36.1406776 20.9243341 0.334583054
C 37.3625357 17.3035978 0.187494787
C 37.4144399 18.7707951 0.251029187
C 38.6434887 19.4985367 0.429467901
C 38.6250367 20.8929692 0.649906116
C 39.836006 17.3160557 0.400576429
C 39.8405787 18.7377174 0.469117157
C 41.070992 19.4330654 0.641936818
C 41.1042551 20.8575268 0.815324901
C 42.2977182 17.2723899 0.56414703
C 42.3105806 18.7205023 0.662294002
C 43.5401034 19.4671592 0.812157552
C 43.5768658 20.8797929 0.893324772
C 44.7551868 17.2359963 0.751260388
C 44.7530285 18.6903616 0.83293967
C 46.0785056 19.3699546 0.87905407
C 46.0620547 20.8414862 0.937208419
C 47.2634719 17.2100519 0.807087169
C 47.300702 18.6178333 0.889412743
C 48.5995603 19.343675 0.926317956
C 48.5353622 20.8381574 0.934332256
C 49.7803066 17.2282534 0.747144384
C 49.8614802 18.6522963 0.810225254
C 51.0957571 19.3848251 0.8405458
C 51.0597592 20.8368553 0.905193697
C 52.2885193 17.2821752 0.61450851
C 52.2816761 18.7149631 0.703041726
C 53.5854595 19.4145656 0.696050295
C 53.5977749 20.838162 0.766648585
C 54.7999866 17.2637045 0.563039776
C 54.8513452 18.6930526 0.625412517
C 56.0700808 19.3707915 0.488588029
C 56.0229624 20.8172262 0.5250037
C 57.3295679 17.2603245 0.419605737
C 57.3365187 18.6907285 0.426668422
C 58.6018457 19.3848039 0.393782732
C 58.5653594 20.8391813 0.357797886
C 59.8320943 17.2813506 0.479762124
C 59.8339549 18.7026857 0.411422659
C 61.0546004 19.4316178 0.38474399
C 61.0860096 20.9039124 0.362752439
C 62.3033802 17.2980696 0.535056978
C 62.3014531 18.7106348 0.429918108
C 63.5767258 19.4457838 0.349997381
C 63.5696275 20.8769029 0.378740166
C 64.8126319 17.2907083 0.418995938
C 64.8804269 18.7248349 0.370105983
C 66.1145692 19.4681697 0.336226384
C 66.074611 20.8871264 0.407463448
C 67.3438146 17.2789639 0.285940553
C 67.3153518 18.7306241 0.263758415
C 68.5726837 19.4393928 0.244183104
C 68.5561516 20.8767774 0.269262707
C 69.824834 17.2980605 0.0719574652
C 69.8137976 18.7227103 0.073741483
C 71.0087408 19.470842 0.0129025279
C 71.0373771 20.8908549 0.0181297062
C 72.3272313 17.3354339 -0.137502544
C 72.2404278 18.7551275 -0.149095634
C 73.5284669 19.5163724 -0.209607916
C 73.528504 20.9227357 -0.194835907
C 74.7818799 17.3235697 -0.275187428
C 74.763503 18.763826 -0.205460101
C 76.0235649 19.5145433 -0.190741538
C 76.0984171 20.9753084 -0.278543319
C 77.2703155 17.3758495 -0.235852737
C 77.2614078 18.7916501 -0.120718907
C 78.5065065 19.4842625 -0.128855711
C 78.5470292 20.9405836 -0.199736841
C 79.8031626 17.3299023 -0.272337191
C 79.7756555 18.774038 -0.191271048
C 81.0297324 19.5341242 -0.164153946
C 81.067279 20.9741641 -0.24941028
C 82.290307 17.3440567 -0.240046656
C 82.2952736 18.7630169 -0.197299881
C 83.5296113 19.4669519 -0.11142713
C 83.5165201 20.9269844 -0.160159633
C 84.7860618 17.3647714 -0.145670976
C 84.7695986 18.8220966 -0.201975831
C 86.0474872 19.5104303 -0.368409865
C 85.9759982 20.923687 -0.387960188
C 87.2790346 17.3761853 -0.390643334
C 87.2931728 18.7949674 -0.411849207
C 88.5495917 19.5457987 -0.392999461
C 88.5264106 20.9938753 -0.417140545
C 89.7741142 17.3835546 -0.535463169
C 89.793545 18.8163309 -0.426316638
C 90.9747168 19.5203906 -0.279156689
C 90.9951083 20.9521701 -0.247769161
C 92.244895 17.3726523 -0.361900289
C 92.2477294 18.7887128 -0.246919457
C 93.4816285 19.5128785 -0.203013901
C 93.5107894 20.9221282 -0.187750014
C 94.7279098 17.3996858 -0.321596869
C 94.7294664 18.8296761 -0.233275988
C 96.0202872 19.5502154 -0.199415025
C 95.9951849 20.9852762 -0.176424954
C 97.1995306 17.3856171 -0.311831406
C 97.2260341 18.8200055 -0.200462111
C 98.4969404 19.5456128 -0.184827439
C 98.4831676 20.9694562 -0.135003095
C 99.7415347 17.3552037 -0.304316114
C 99.7172584 18.769111 -0.249132638
C 100.978438 19.4630068 -0.168488496
C 100.952097 20.9342832 -0.0941259852
C 102.196171 17.2806513 -0.4092307
C 102.189911 18.7071504 -0.307535238
C 103.427555 19.458311 -0.347524412
C 103.468277 20.9041155 -0.289839818
C 104.696257 17.3116576 -0.444028292
C 104.688333 18.728752 -0.422245556
C 105.967305 19.4901684 -0.573555363
C 105.979428 20.9347593 -0.510881463
C 107.186482 17.2991684 -0.578402667
C 107.221341 18.735733 -0.63813473
C 108.458368 19.4342238 -0.694172958
C 108.517447 20.8879123 -0.681683928
C 109.690527 17.2425335 -0.715139156
C 109.689677 18.6791035 -0.694542989
C 110.927034 19.4466642 -0.74700819
C 110.947629 20.9199125 -0.679376966
C 112.149657 17.2929177 -0.777197977
C 112.15595 18.7342548 -0.80759925
C 113.419148 19.4705562 -0.878611545
C 113.398712 20.931025 -0.850910542
C 114.667805 17.275643 -0.772896586
C 114.681979 18.7514082 -0.84948525
C 115.920086 19.4528487 -0.783356855
C 115.884524 20.8964976 -0.707900441
C 117.188355 17.3218803 -0.790419435
C 117.150538 18.7645148 -0.814492539
C 118.435821 19.4733902 -0.785001489
C 118.426639 20.9163465 -0.702826572
C 119.700784 17.2954666 -0.77847941
C 119.681525 18.7517789 -0.757420489
C 120.955307 19.4379041 -0.632497833
C 120.955816 20.8821774 -0.615513991
C 122.189571 17.2992319 -0.626736567
C 122.196466 18.7666977 -0.527688436
C 123.459895 19.4903202 -0.427763335
C 123.474725 20.9064907 -0.456348408
C 124.6796 17.3324141 -0.326782008
C 124.681108 18.7802399 -0.292514712
C 125.897747 19.4577515 -0.195317687
C 125.904307 20.9282602 -0.17408123
C 127.181184 17.3129146 -0.127664308
C 127.159018 18.7612835 -0.109237849
C 128.404985 19.4842344 -0.0167446436
C 128.436677 20.9536417 0.0751772466
C 129.719043 17.3157609 -0.104630486
C 129.666662 18.7673464 0.00350792352
C 130.927266 19.5197541 -0.00263537661
C 130.912595 20.9676076 0.0426508666
C 132.20817 17.3662746 -0.150738201
C 132.167035 18.793417 -0.0753353024
C 133.442484 19.5371589 -0.0323730563
C 133.402411 20.9641152 0.0159709965
C 134.690983 17.3466416 -0.0892319189
C 134.682674 18.7778495 -0.122694992
C 135.89367 19.4449156 -0.0804515912
C 135.925535 20.9111985 -0.136554243
C 137.126768 17.3104412 0.0117615697
C 137.158632 18.7280179 0.000451257827
C 138.382577 19.480069 -0.128631829
C 138.420577 20.9000669 -0.199476451
C 139.63908 17.2776737 -0.118634558
C 139.60446 18.7889738 -0.238321674
C 140.89183 19.478765 -0.215322578
C 140.91434 20.9219908 -0.229100992
C 142.129876 17.262753 -0.114290959
C 142.138163 18.7461078 -0.128449455
C 143.414948 19.4568284 -0.156590804
C 143.427267 20.9095532 -0.199368898
C 144.695836 17.2507871 -0.210752401
C 144.68272 18.6852784 -0.190075092
C 145.915585 19.3983256 -0.0805610571
C 145.921235 20.8313819 -0.15142086
C 147.164897 17.287302 -0.148192931
C 147.18506 18.6970079 -0.0139318965
C 148.43914 19.4601433 -0.0252379909
C 148.416155 20.8944035 -0.0545196875
C 149.684895 17.2649916 -0.0387519649
C 149.692194 18.6910685 0.0278379514
C 150.918444 19.4574904 -0.030401806
C 150.890847 20.8899109 -0.016698986
C 152.165781 17.3119961 -0.114828267
C 152.174216 18.7541972 -0.0710579773
C 153.403542 19.4605411 -0.12495063
C 153.383058 20.8952092 0.00177262518
C 154.681085 17.3172592 -0.26149529
C 154.658167 18.7569236 -0.199329674
C 155.893549 19.4827671 -0.159827076
C 155.862778 20.9060854 -0.00826703898
C 157.156895 17.3358843 -0.364161362
C 157.189701 18.772837 -0.185932715
C 158.413816 19.5102276 -0.102106258
C 158.388562 20.9547965 0.119072729
C 159.607722 17.3042888 -0.288926378
C 159.617707 18.7229136 -0.180144769
C 160.871467 19.4706142 -0.100265583
C 160.835934 20.9336034 0.0154133496
C 162.137361 17.343079 -0.243956265
C 162.149361 18.7643987 -0.115045032
C 163.323231 19.5174664 -0.0496034464
C 163.401132 20.9272161 0.00755243682
C 164.622972 17.3320631 -0.139709326
C 164.580875 18.7641006 -0.0465941923
C 165.845513 19.4698953 0.124743648
C 165.875593 20.9104978 0.120995865
C 167.139501 17.2941777 -0.0350652874
C 167.07753 18.7166316 0.142113598
C 168.374408 19.4190995 0.268590551
C 168.354122 20.8507285 0.382474019
C 169.605112 17.3022263 0.10259736
C 169.63271 18.7459542 0.213735376
C 170.897873 19.4501248 0.342742098
C 170.860274 20.8735154 0.344939996
C 172.121444 17.3070471 0.0485158187
C 172.122286 18.7318288 0.184153223
C 173.378081 19.4805486 0.0442621901
C 173.312594 20.911261 0.0600652309
C 174.60516 17.3298573 -0.0819838013
C 174.612521 18.7744307 -0.0787168728
C 175.848931 19.4812635 -0.138623424
C 175.866086 20.9032497 -0.0101841111
C 177.132548 17.2939861 -0.0242921766
C 177.105232 18.7383578 -0.075626635
C 178.336273 19.4325091 -0.0629213964
C 178.378066 20.8945398 -0.0639981734
C 179.584737 17.325566 -0.160160719
C 179.577842 18.7506191 -0.0463412743
C 180.862745 19.4738738 0.00556916644
C 180.891004 20.8772895 -0.0243533314
C 182.149632 17.2871934 -0.111886034
C 182.159691 18.7395245 -0.0459647588
C 183.38772 19.4658728 -0.106718926
C 183.428596 20.8877934 -0.0693659662
C 184.651368 17.3354198 -0.140488649
C 184.630941 18.7954926 -0.136191155
C 185.846848 19.4867061 -0.216272496
C 185.880529 20.9123172 -0.253905213
C 187.103131 17.2947826 -0.182791552
C 187.10357 18.7971848 -0.225779495
C 188.343222 19.5222244 -0.388244852
C 188.328638 20.9288816 -0.524387392
C 189.561945 17.313979 -0.382058284
C 189.582554 18.7811434 -0.416865349
C 190.827458 19.4936856 -0.484152538
C 190.815297 20.9518807 -0.58439661
C 192.062498 17.3472055 -0.53737252
C 192.106558 18.8011778 -0.520910451
C 193.332951 19.5059318 -0.593094511
C 193.315905 20.9211036 -0.697680341
C 194.572456 17.3049514 -0.601269394
C 194.563865 18.7147658 -0.653202285
C 195.846107 19.5013281 -0.800610297
C 195.809535 20.9391745 -0.758803034
C 197.093341 17.2552432 -0.862517005
C 197.090958 18.7625425 -0.921582263
C 198.289528 19.5125721 -0.896201881
C 198.303919 20.9123278 -0.75432874
C 199.557613 17.3428153 -1.1086783
C 199.531638 18.8103682 -1.06369992
C 200.751356 19.4776979 -0.956887704
C 200.808973 20.9095427 -0.732503494
C 202.048286 17.3265449 -1.24333224
C 202.059909 18.7831974 -1.14884229
C 203.29949 19.4797405 -0.979604723
C 203.285984 20.890513 -0.820138823
C 204.53602 17.3288041 -0.991647486
C 204.519301 18.7591737 -0.902116496
C 205.797541 19.4746976 -0.821111072
C 205.796688 20.8928742 -0.846631597
C 207.022017 17.3045507 -0.816711277
C 207.059749 18.7838693 -0.766357238
C 208.308061 19.4690576 -0.671228148
C 208.302724 20.8900891 -0.652709853
C 209.552097 17.2924321 -0.624253424
C 209.539979 18.7252402 -0.536911077
C 210.781395 19.4440107 -0.43726711
C 210.780675 20.901419 -0.461853961
C 212.027016 17.2900467 -0.526124821
C 212.049546 18.7396124 -0.421676218
C 213.253151 19.4850894 -0.309037387
C 213.258721 20.9201732 -0.417687828
C 214.498832 17.3111946 -0.303643706
C 214.498905 18.7445392 -0.259632521
C 215.739353 19.4433672 -0.25865412
C 215.763511 20.8804384 -0.276255803
C 216.927335 17.2776198 -0.284718406
C 216.961279 18.7206776 -0.267209218
C 218.223837 19.4850416 -0.234821559
C 218.246233 20.9257041 -0.286035071
C 219.53633 17.3026366 -0.361493925
C 219.49036 18.7492394 -0.261660276
C 220.748127 19.4529758 -0.222783653
C 220.761705 20.9348478 -0.182154966
C 221.968543 17.2741913 -0.215868643
C 221.977863 18.7329657 -0.185767957
C 223.23464 19.4772149 -0.0484782858
C 223.234629 20.9047098 0.0552672236
C 224.476659 17.3089096 -0.174833507
C 224.531011 18.7621016 0.0111462236
C 225.776105 19.5030118 0.021682223
C 225.76033 20.901271 0.120793964
C 226.981821 17.3426306 -0.241044297
C 226.979866 18.7701628 -0.140789558
C 228.234019 19.4296064 -0.0959343484
C 228.246978 20.8736505 -0.0304356125
C 229.472879 17.3369275 -0.0584749755
C 229.469861 18.7485588 -0.035950298
C 230.708139 19.4342239 -0.0801982141
C 230.690695 20.8814276 0.090844348
C 231.981795 17.2575139 0.0963567311
C 232.002598 18.6832549 0.0621544023
C 233.191742 19.458497 0.211090996
C 233.199664 20.9148332 0.46276279
C 234.399304 17.2768687 0.340849365
C 234.42512 18.7358845 0.364540075
C 235.65832 19.4388878 0.421987262
C 235.667039 20.8945847 0.429911008
C 236.921345 17.2763493 0.41517546
C 236.944676 18.7216946 0.4293635
C 238.169259 19.4768529 0.402771684
C 238.13464 20.9026076 0.384543972
C 239.414963 17.29606 0.35538841
C 239.454633 18.7486441 0.315699332
C 240.682915 19.4905917 0.289256971
C 240.644506 20.9227883 0.271566364
C 241.872503 17.3088814 0.150183979
C 241.903314 18.7636105 0.198130877
C 243.129272 19.4537282 0.078657695
C 243.180152 20.8691178 0.0539993318
C 244.37796 17.3078673 0.0854436337
C 244.350867 18.7566637 -0.00302404688
C 245.639906 19.4717148 -0.107623174
C 245.630131 20.9080128 -0.112537684
C 246.876872 17.3042787 -0.168953369
C 246.901785 18.7581758 -0.253645097
C 248.174367 19.4325294 -0.334817825
C 248.141547 20.8985107 -0.354240285
C 249.393489 21.5969219 -0.371240002
C 249.369508 23.0675573 -0.415024475
C 1.2115616 23.8043782 -0.452036425
C 1.20383758 25.223021 -0.378737556
C 2.47206831 21.6056405 -0.410760895
C 2.42759549 23.0340984 -0.556965775
C 3.70298496 23.7105657 -0.579696261
C 3.70024607 25.1738035 -0.447939377
C 4.98323311 21.5804875 -0.329394115
C 5.01833072 23.0324602 -0.484140915
C 6.25253603 23.7706344 -0.36887445
C 6.2164092 25.2184361 -0.270379358
C 7.4684838 21.6018554 -0.254485134
C 7.49757021 23.0532121 -0.248052431
C 8.7010743 23.8473889 -0.00889036392
C 8.70957579 25.2511561 0.109064557
C 9.96153454 21.6267705 -0.129610178
C 9.96139068 23.0668609 -0.105564668
C 11.2265542 23.7962875 -0.0187797467
C 11.1986522 25.2580879 0.0701346656
C 12.4530589 21.6298305 -0.0110596665
C 12.4388017 23.0623476 -0.00117922457
C 13.6651696 23.7568961 0.0463234992
C 13.7119074 25.1931364 0.106054811
C 14.9304507 21.5948027 0.0449901933
C 14.9583041 23.0339458 0.0029061603
C 16.1633444 23.7768319 -0.00935786835
C 16.1805462 25.1906376 0.132668561
C 17.4390985 21.6733073 0.0872079998
C 17.4313708 23.108799 0.0585497988
C 18.6975057 23.7757461 0.100591448
C 18.7115096 25.2146542 0.15599498
C 19.9650841 21.6458501 0.232451975
C 19.962501 23.1082833 0.238399442
C 21.1981024 23.7377106 0.342170643
C 21.148587 25.2028343 0.342325824
C 22.414349 21.5938726 0.267468605
C 22.4133625 23.0397779 0.419931674
C 23.6296795 23.7181927 0.477397283
C 23.664138 25.1930786 0.579043803
C 24.9079303 21.570198 0.193618495
C 24.8894715 22.9875002 0.444810215
C 26.1166874 23.6732478 0.65900386
C 26.1282507 25.0926398 0.715391331
C 27.4382993 21.6118559 0.499947338
C 27.4004332 22.9898791 0.598368926
C 28.6527997 23.7268239 0.676179845
C 28.6522908 25.0895928 0.818740992
C 29.908899 21.5966526 0.498235573
C 29.8547834 23.0087691 0.621127423
C 31.1015819 23.7303814 0.712953746
C 31.1249561 25.1571755 0.765389674
C 32.4029131 21.588318 0.39927236
C 32.3782176 23.0726975 0.576086339
C 33.6600471 23.765067 0.598020005
C 33.6320741 25.1675624 0.76165694
C 34.8915099 21.6375129 0.366837137
C 34.8966307 23.0348249 0.492257186
C 36.1118193 23.7783327 0.759997045
C 36.1488022 25.2418628 0.90671862
C 37.3863284 21.6160302 0.670682707
C 37.3654995 23.0092335 0.790620573
C 38.6651093 23.7084571 0.982298912
C 38.6094265 25.1989211 1.13462665
C 39.8681396 21.5757295 0.873551106
C 39.9058545 23.028476 0.989695035
C 41.1086968 23.7333571 1.10167994
C 41.1327532 25.1684719 1.22817195
C 42.3245629 21.5685343 0.930219104
C 42.3610437 23.0256758 1.06638643
C 43.631171 23.7014589 1.13585341
C 43.6508412 25.1516176 1.28055897
C 44.833419 21.5763676 0.984858617
C 44.8678739 22.9882138 1.01845512
C 46.1281174 23.7201518 1.03548475
C 46.1305727 25.1542405 1.11038639
C 47.2766366 21.552676 0.972292161
C 47.3720358 22.9975829 1.01442711
C 48.6124009 23.7217234 0.99513715
C 48.616331 25.163513 0.917291737
C 49.8301201 21.5591407 0.95734648
C 49.8705958 23.0255411 0.962192728
C 51.124153 23.7051698 0.833510805
C 51.134456 25.1504259 0.734047653
C 52.3093602 21.5534342 0.779542975
C 52.3457813 22.9749233 0.717346022
C 53.5526765 23.7351454 0.499033683
C 53.6063289 25.1910459 0.34664465
C 54.8153638 21.5945066 0.626616075
C 54.8108075 23.0500943 0.530159291
C 56.0678059 23.7420712 0.348323377
C 56.0837614 25.1987665 0.284627496
C 57.2701523 21.5516591 0.327867073
C 57.3333411 23.0181658 0.334224679
C 58.5389426 23.7283959 0.278140008
C 58.5649487 25.1968772 0.204109859
C 59.8476638 21.5894778 0.340866353
C 59.8310737 23.0263918 0.230006734
C 61.0655398 23.7557095 0.187433491
C 61.0560849 25.1855496 0.198818247
C 62.3421004 21.6249583 0.405946802
C 62.3223749 23.0602787 0.306801459
C 63.5906859 23.7653884 0.292510805
C 63.6104645 25.2253322 0.278141315
C 64.841351 21.5953593 0.363400207
C 64.8286174 23.0125621 0.376757255
C 66.0844241 23.792048 0.5040101
C 66.0378607 25.2227462 0.43559531
C 67.3331413 21.582952 0.421054346
C 67.3457975 23.0525533 0.39832061
C 68.586872 23.7386446 0.322548244
C 68.5737886 25.2306434 0.360265587
C 69.8073253 21.6020564 0.174425057
C 69.8314456 23.0496079 0.248224371
C 71.069297 23.8048049 0.153756657
C 71.0449168 25.2550024 0.191733053
C 72.2982817 21.6758279 -0.14271197
C 72.2390754 23.1008002 -0.0549116353
C 73.5206924 23.8517866 -0.0962514879
C 73.535513 25.2639367 -0.134736192
C 74.7774144 21.6675096 -0.245424793
C 74.7789527 23.0808408 -0.153725023
C 76.0277816 23.8207725 -0.18679176
C 76.058986 25.2233802 -0.0285665254
C 77.3167142 21.6882248 -0.238750308
C 77.267819 23.1065367 -0.181980597
C 78.5767043 23.8079827 -0.0522765404
C 78.5704082 25.2278758 0.0539375528
C 79.8236107 21.6517009 -0.148441831
C 79.7829895 23.0844794 -0.0965886409
C 81.0491591 23.7852869 -0.0278414461
C 81.0744173 25.2468009 0.0665172226
C 82.282638 21.6806078 -0.205261734
C 82.3307482 23.1193053 -0.172248851
C 83.5649437 23.8440775 -0.234775937
C 83.5750398 25.2838492 -0.110802819
C 84.7056774 21.6631838 -0.311501482
C 84.7737689 23.1195861 -0.259571782
C 86.0271992 23.8080341 -0.190363299
C 85.999431 25.2859727 -0.028016705
C 87.2434586 21.6859749 -0.420887634
C 87.2724331 23.1440477 -0.275615381
C 88.5267603 23.8354669 -0.125122079
C 88.5470275 25.2681287 0.0885947008
C 89.7574551 21.7223385 -0.245712035
C 89.7730818 23.1090544 -0.0860388706
C 90.9861078 23.7994969 0.101710376
C 91.0106558 25.2458949 0.150650673
C 92.2686537 21.6285719 -0.250077408
C 92.241593 23.0739509 -0.0105360263
C 93.4905919 23.791274 0.00545378401
C 93.4954656 25.2276813 0.119744295
C 94.7719494 21.6698292 -0.163706241
C 94.7829754 23.1015921 -0.0899547984
C 96.0027753 23.8693604 0.0116705519
C 95.9826554 25.2873725 0.109854313
C 97.2739296 21.6873644 -0.0518291238
C 97.2751666 23.1160258 0.0203343018
C 98.5173412 23.856287 0.0518551319
C 98.4950157 25.289879 0.0871559721
C 99.7303664 21.690026 -0.0820288962
C 99.7679335 23.1336715 -0.0214651139
C 101.019852 23.8704288 -0.0990477611
C 101.026519 25.2783123 -0.0177990683
C 102.238739 21.6485374 -0.213993299
C 102.182164 23.0956951 -0.123645368
C 103.471349 23.7827151 -0.126587453
C 103.465141 25.2937111 -0.0259730705
C 104.744933 21.6237222 -0.305673952
C 104.769457 23.0599652 -0.19080325
C 105.954474 23.7750513 -0.1492675
C 105.968976 25.2287324 -0.0258778908
C 107.229401 21.6154095 -0.493039124
C 107.234827 23.0465781 -0.239523885
C 108.469501 23.8067763 -0.325182249
C 108.454769 25.2458696 -0.177026641
C 109.723451 21.6450466 -0.619519687
C 109.670768 23.1181419 -0.515988675
C 110.907258 23.8629616 -0.528060534
C 110.978936 25.2755652 -0.314131943
C 112.148407 21.6614449 -0.766653939
C 112.144424 23.0970813 -0.664215999
C 113.418235 23.8028699 -0.650491666
C 113.45154 25.2857023 -0.507121772
C 114.650574 21.6074662 -0.712975927
C 114.685647 23.1147584 -0.667761153
C 115.935673 23.8187435 -0.585912321
C 115.94551 25.2637901 -0.51180571
C 117.202683 21.6477606 -0.608545673
C 117.227481 23.087615 -0.573611752
C 118.443326 23.8115475 -0.506605122
C 118.476264 25.2415462 -0.383434761
C 119.679896 21.6247861 -0.68151849
C 119.640257 23.0611528 -0.545877337
C 120.915561 23.7610044 -0.361356271
C 120.913628 25.1897826 -0.236291331
C 122.186822 21.6071032 -0.551055965
C 122.157712 23.0496273 -0.443537514
C 123.410328 23.7991938 -0.411047554
C 123.426477 25.2044316 -0.237143492
C 124.685087 21.6291956 -0.228951943
C 124.689425 23.0831943 -0.300287884
C 125.919012 23.8187594 -0.270500752
C 125.942279 25.2510424 -0.158941176
C 127.166483 21.5986924 -0.0557009066
C 127.141335 23.0593489 -0.12644548
C 128.450368 23.7632454 0.0182605642
C 128.428042 25.1956674 -0.0476426286
C 129.651072 21.6328869 0.0760200036
C 129.657034 23.0221624 0.0368508225
C 130.868831 23.758931 0.0341568794
C 130.894908 25.1843254 0.040070577
C 132.140143 21.6813509 0.0634422316
C 132.135856 23.1198856 0.00958049267
C 133.391174 23.822904 -0.00307940771
C 133.395882 25.2380437 0.126135067
C 134.668665 21.6806368 -0.119666494
C 134.648806 23.0817833 -0.0748506585
C 135.897835 23.8694171 -0.180821638
C 135.869516 25.3015559 -0.0631856763
C 137.152874 21.647811 -0.211607659
C 137.13004 23.1013338 -0.214747512
C 138.431276 23.8033486 -0.145627333
C 138.370694 25.2256977 -0.0292990728
C 139.652645 21.6008019 -0.159469969
C 139.669543 23.0628596 -0.125809783
C 140.957645 23.7274051 -0.112485093
C 140.927474 25.1804868 -0.0584688326
C 142.171155 21.6441135 -0.194447229
C 142.194548 23.078462 -0.108031284
C 143.419059 23.7793481 0.0151451094
C 143.404437 25.1964707 0.0649088773
C 144.676455 21.5453851 -0.138531236
C 144.636143 22.9782531 -0.0430988351
C 145.85547 23.6726872 0.0726249901
C 145.87679 25.1282571 0.0568710698
C 147.179355 21.5801322 -0.0553908
C 147.188665 23.0554496 0.0157034612
C 148.420657 23.810097 0.0654794929
C 148.40568 25.2819188 0.137786145
C 149.650838 21.6105893 -0.00115943616
C 149.652402 23.0598469 0.0894466915
C 150.879552 23.7622048 0.204909385
C 150.9016 25.2329401 0.230851593
C 152.134759 21.6216348 0.110848463
C 152.143533 23.0368683 0.240389631
C 153.340006 23.775533 0.229111345
C 153.414234 25.1795612 0.440701969
C 154.596212 21.6098151 0.0306357844
C 154.613503 23.050421 0.193437868
C 155.834935 23.7732933 0.194548617
C 155.841893 25.2530035 0.346259366
C 157.095047 21.6283073 0.0779646279
C 157.088701 23.0696855 0.149627981
C 158.36041 23.8018952 0.2283456
C 158.379922 25.2437251 0.353877096
C 159.635127 21.6619267 0.171584639
C 159.642227 23.0840382 0.280368331
C 160.924339 23.7749309 0.325810188
C 160.924586 25.2024893 0.395487118
C 162.139747 21.6207088 0.0477978593
C 162.18981 23.0271258 0.22181358
C 163.436094 23.7187743 0.202239816
C 163.415506 25.2159903 0.31321963
C 164.62213 21.6315048 0.0291825677
C 164.632385 23.0407948 0.0233957837
C 165.867802 23.7333896 0.11039541
C 165.857525 25.1963321 0.324486783
C 167.116786 21.5396002 0.265846084
C 167.100217 23.0029594 0.258286014
C 168.351267 23.7798386 0.362383698
C 168.386792 25.1860935 0.436177104
C 169.594736 21.6129608 0.475817916
C 169.586397 23.0692346 0.439061765
C 170.798445 23.7864472 0.335180172
C 170.830627 25.2028668 0.357051743
C 172.105261 21.6649808 0.221240128
C 172.027224 23.0794305 0.293050498
C 173.332918 23.7584547 0.237649426
C 173.349506 25.1793239 0.30154308
C 174.603151 21.6080123 0.0441798172
C 174.603563 23.0466356 0.0993936233
C 175.840704 23.8086117 0.0749358167
C 175.858435 25.2193241 0.202561204
C 177.12567 21.5846919 -0.0066117218
C 177.130542 23.1396639 0.0156416762
C 178.377371 23.7597832 0.0261562325
C 178.354372 25.2117806 0.12473045
C 179.629852 21.5527427 -0.0438553553
C 179.596774 23.0276566 -0.0153763805
C 180.842054 23.7808433 -0.0064061325
C 180.843524 25.251592 0.100642113
C 182.134423 21.6052388 -0.0361046334
C 182.096081 23.0627094 -0.0807044898
C 183.366981 23.8157966 -0.14647893
C 183.309807 25.2371949 -0.117039991
C 184.690062 21.6486627 -0.212856898
C 184.608525 23.0632071 -0.239893742
C 185.846938 23.8033661 -0.312435284
C 185.810261 25.2401024 -0.53022454
C 187.092965 21.6645916 -0.312058708
C 187.096086 23.1127384 -0.375903962
C 188.315892 23.8323837 -0.616651096
C 188.280004 25.2193179 -0.715728804
C 189.545255 21.6392542 -0.645857308
C 189.573907 23.1011846 -0.620864126
C 190.844183 23.7734551 -0.604710221
C 190.813894 25.1994858 -0.637961867
C 192.084043 21.6460484 -0.727141819
C 192.101182 23.0794071 -0.693284443
C 193.313749 23.7921459 -0.769131251
C 193.308632 25.2265575 -0.816507615
C 194.569111 21.6447286 -0.754059151
C 194.557687 23.080673 -0.79880016
C 195.79354 23.8259982 -0.727490067
C 195.801547 25.2706976 -0.77346579
C 197.062529 21.6367335 -0.690291891
C 197.032482 23.1094687 -0.628553164
C 198.297431 23.8288533 -0.625950768
C 198.272997 25.2774711 -0.706498981
C 199.545684 21.6430184 -0.641586871
C 199.559635 23.0641334 -0.652350908
C 200.773392 23.8188836 -0.692025053
C 200.777575 25.2851041 -0.754773122
C 202.039257 21.6104375 -0.748353831
C 202.028078 23.0632604 -0.7348002
C 203.309524 23.7444049 -0.794995788
C 203.321274 25.217597 -0.866232555
C 204.535937 21.5571676 -0.839679136
C 204.539856 23.0189374 -0.779143279
C 205.77879 23.7466078 -0.851243817
C 205.818702 25.1711659 -0.933978181
C 207.055774 21.6040209 -0.724935147
C 207.011513 23.0623669 -0.663501511
C 208.251946 23.7841678 -0.567124063
C 208.288078 25.2568465 -0.675256947
C 209.550809 21.6588975 -0.486133037
C 209.476814 23.0892256 -0.488107695
C 210.782166 23.829747 -0.568761805
C 210.759937 25.2800741 -0.628879929
C 212.018892 21.6264059 -0.480962978
C 212.016558 23.0846929 -0.5125796
C 213.265497 23.786475 -0.546826348
C 213.270549 25.254757 -0.553083016
C 214.528027 21.58397 -0.405413144
C 214.5089 23.0360797 -0.411292536
C 215.732327 23.7568601 -0.357779634
C 215.783919 25.2256255 -0.445778189
C 217.0057 21.6116549 -0.195656724
C 217.007012 23.0520049 -0.182221777
C 218.285705 23.8225046 -0.181913281
C 218.25663 25.2570142 -0.201655496
C 219.507504 21.6563831 -0.256679515
C 219.502943 23.0836365 -0.258156082
C 220.764724 23.8256139 -0.234732319
C 220.750803 25.2479319 -0.160173925
C 222.032035 21.6501959 -0.0471106891
C 221.991498 23.1080762 -0.122703102
C 223.235534 23.7767969 -0.111713649
C 223.220376 25.2455134 -0.14456601
C 224.481709 21.6306098 0.0831545399
C 224.478685 23.0652776 -0.11363994
C 225.745064 23.7535124 -0.148670816
C 225.727441 25.2048736 -0.265643178
C 227.022733 21.5991505 0.00894736705
C 226.977095 23.053514 -0.147373656
C 228.236482 23.77647 -0.0150640365
C 228.201306 25.1986161 0.00919873676
C 229.477998 21.631344 0.0680426572
C 229.466059 23.0587604 0.139363552
C 230.662001 23.8000813 0.410505338
C 230.697303 25.2321063 0.539252506
C 231.883511 21.6077322 0.3842341
C 231.890298 23.053672 0.544308177
C 233.131437 23.7610102 0.766178673
C 233.158108 25.2335665 0.738265398
C 234.399803 21.667158 0.570538967
C 234.395185 23.1077064 0.712406638
C 235.677409 23.794138 0.659847089
C 235.658753 25.2352407 0.716843349
C 236.891285 21.6371401 0.431866129
C 236.942132 23.0590805 0.535303606
C 238.171817 23.8159031 0.482698736
C 238.157716 25.2107122 0.46206465
C 239.380132 21.673163 0.359199636
C 239.424102 23.0640023 0.454452751
C 240.654975 23.7998234 0.330296003
C 240.664156 25.284718 0.400278322
C 241.93478 21.6041304 0.218536972
C 241.908026 23.0468942 0.376382873
C 243.134393 23.7399519 0.257269761
C 243.155778 25.2098634 0.215398021
C 244.398233 21.6276756 0.0209490156
C 244.372323 23.0440955 0.0651361627
C 245.631375 23.7867635 0.0138819407
C 245.651963 25.1951232 0.0713162549
C 246.914929 21.6435982 -0.226127378
C 246.868288 23.0625971 -0.169389682
C 248.128776 23.7637983 -0.271629287
C 248.142749 25.1992179 -0.346178151
C 249.370643 25.9275219 -0.415207539
C 249.374343 27.3440214 -0.252965968
C 1.19329836 28.0744946 -0.174563088
C 1.2533092 29.462831 -0.133182533
C 2.45280328 25.9164451 -0.380327675
C 2.43770866 27.3009803 -0.245994979
C 3.68862632 28.0136506 -0.228188848
C 3.69724384 29.4650289 -0.162111006
C 4.95719131 25.9210159 -0.301925629
C 4.93882545 27.3263004 -0.212994896
C 6.18640929 28.0719143 -0.121771922
C 6.2270704 29.4872727 0.0206234247
C 7.44856312 25.9523683 -0.0976781278
C 7.43995459 27.36979 -0.125365266
C 8.68221584 28.0991838 -0.00845263573
C 8.69207803 29.5467842 0.126770655
C 9.93477736 25.9388061 0.0912779915
C 9.91894514 27.3937931 0.0736498872
C 11.2287023 28.0728621 0.0599594904
C 11.2252222 29.5316439 0.113876698
C 12.4529834 25.9328913 0.0830773915
C 12.4979719 27.353023 0.0940844737
C 13.7270001 28.097172 0.129577208
C 13.7168483 29.5614607 0.169339438
C 14.9305223 25.9287507 0.155375495
C 14.9317411 27.4039225 0.117066055
C 16.2017381 28.0528885 0.182490369
C 16.211955 29.5392446 0.211975063
C 17.4211342 25.9183608 0.228480281
C 17.4317883 27.3683272 0.257211587
C 18.7372825 28.096665 0.292540832
C 18.7717716 29.5125483 0.336788008
C 19.961154 25.9150787 0.326536534
C 19.9531512 27.3547412 0.295579531
C 21.1924405 28.0610447 0.363243375
C 21.2043159 29.5006495 0.562178463
C 22.4285716 25.9296967 0.507198945
C 22.4397506 27.3276739 0.4316834
C 23.6830526 28.0967477 0.516763616
C 23.7044471 29.5127038 0.663563813
C 24.8984301 25.8763362 0.722056717
C 24.9235094 27.3091088 0.616309486
C 26.165327 28.0363948 0.802972161
C 26.1945918 29.4508029 0.851088454
C 27.3944189 25.8133646 0.862142027
C 27.3930061 27.3219452 0.872990865
C 28.6391504 28.0402496 0.990443008
C 28.6007998 29.4435366 1.12740787
C 29.8832922 25.8403923 0.828220956
C 29.8898173 27.2997897 0.916381196
C 31.1343815 28.0172294 0.959849358
C 31.1156866 29.4607343 0.999907352
C 32.3869036 25.8955894 0.785973276
C 32.4340528 27.3314792 0.932044116
C 33.6425444 28.0950442 0.904211965
C 33.6747518 29.517145 0.920932367
C 34.8483571 25.9539399 0.869845184
C 34.8600385 27.3615641 0.908844815
C 36.1195687 28.0749726 0.983307268
C 36.1036426 29.4972894 1.02140347
C 37.3539722 25.9321956 0.994762449
C 37.368312 27.380634 0.970703809
C 38.6601286 28.0253333 1.13334364
C 38.6170576 29.4762386 1.08954326
C 39.888327 25.875163 1.23335019
C 39.9125586 27.3081054 1.24330743
C 41.1354454 28.0331085 1.31270927
C 41.1229068 29.4661896 1.30029491
C 42.3962694 25.8885297 1.35901185
C 42.4440033 27.3264049 1.35727404
C 43.6805489 28.0262963 1.33173582
C 43.6265251 29.4747824 1.31901481
C 44.8942109 25.8988194 1.24518227
C 44.9559581 27.3260095 1.30538033
C 46.1837271 28.0627993 1.27674219
C 46.1693506 29.5384415 1.29902216
C 47.3493723 25.9110291 1.05795343
C 47.4264572 27.3305698 1.16554844
C 48.6603098 28.0866227 0.975917748
C 48.6988939 29.5570622 1.07140455
C 49.8680716 25.8622495 0.817797711
C 49.8653607 27.3091752 0.8196025
C 51.1024161 28.0361724 0.735901887
C 51.1269722 29.4725821 0.891460046
C 52.3523919 25.9187349 0.494353822
C 52.310874 27.4035808 0.516471055
C 53.598342 28.0501108 0.412660388
C 53.6114371 29.5016178 0.529393913
C 54.8398158 25.965489 0.291681075
C 54.7989468 27.3675617 0.324194117
C 56.0585216 28.1277496 0.308306754
C 56.0784784 29.5510138 0.210939984
C 57.3121943 25.9367282 0.261921014
C 57.3316966 27.3426513 0.366851669
C 58.5599113 28.0732114 0.167125034
C 58.5564495 29.5052888 0.0935030546
C 59.8283681 25.9184553 0.188578487
C 59.826561 27.3524092 0.207470338
C 61.0705831 28.0399769 0.173902233
C 61.0798687 29.4608519 0.152822284
C 62.3570049 25.8923001 0.252718704
C 62.3270992 27.3022167 0.15166774
C 63.5754023 28.0081625 0.115346034
C 63.5773207 29.4601206 0.0788883538
C 64.8517494 25.9411737 0.294193646
C 64.8468178 27.3505203 0.200490834
C 66.0631991 28.0869532 0.205434385
C 66.1458569 29.521649 0.15231273
C 67.317755 25.9289865 0.377680792
C 67.295278 27.3934623 0.248443767
C 68.5522277 28.1087735 0.185310398
C 68.566007 29.5391765 0.127178437
C 69.7951564 25.9794136 0.219777189
C 69.7797422 27.3855313 0.171055732
C 71.0372051 28.1297645 0.118162698
C 71.0408219 29.5887248 0.143761457
C 72.3141688 25.9975165 0.0756854323
C 72.2786178 27.4317911 0.155563846
C 73.5390994 28.0958943 0.013704748
C 73.5581993 29.5492184 -0.0751740544
C 74.8131041 25.9549398 -0.0896164283
C 74.7920296 27.4159145 0.0551299713
C 76.0548499 28.1111239 0.13430995
C 76.0715914 29.5497537 0.0932037567
C 77.3042534 25.9287867 -0.0082273547
C 77.3072532 27.3680123 0.0462629254
C 78.5300705 28.1098797 0.0597267208
C 78.5493677 29.5798264 0.0674966883
C 79.7896651 25.9465833 0.125643871
C 79.8192402 27.4122069 0.0667489319
C 81.0498964 28.1238491 0.0402987929
C 81.0942742 29.6225303 0.148811206
C 82.3295764 25.984204 -0.0941802387
C 82.3285221 27.417271 -0.11881211
C 83.6071116 28.1410123 -0.0425634808
C 83.6093904 29.6008452 0.0487935475
C 84.80848 26.0620004 -0.11206748
C 84.8170404 27.4387202 -0.0745987001
C 86.0252696 28.1406775 0.067430987
C 86.0382901 29.580146 0.0699346837
C 87.3033765 26.016276 0.104225578
C 87.2687547 27.445773 0.073682053
C 88.5047729 28.1379216 0.230191292
C 88.5528811 29.5723778 0.200678651
C 89.8055397 25.9716617 0.158906548
C 89.7408696 27.4396001 0.271672076
C 91.0093954 28.1142652 0.407329921
C 91.0554014 29.5728925 0.436948753
C 92.2703631 25.9696909 0.187899795
C 92.2764401 27.4078977 0.305506673
C 93.5260969 28.1504182 0.336054752
C 93.5259622 29.544231 0.435994379
C 94.745847 25.9778552 0.174283269
C 94.7951004 27.3987484 0.30419148
C 96.083276 28.1212191 0.206140381
C 96.053284 29.5636738 0.300430825
C 97.2788606 25.9718198 0.0884121932
C 97.2907767 27.4127438 0.0746404815
C 98.5669263 28.1394198 0.167846286
C 98.563818 29.5617237 0.371389741
C 99.7888533 26.0233382 0.0565798076
C 99.8196303 27.4400083 0.201494869
C 101.054037 28.1285631 0.261373898
C 101.052016 29.5536602 0.382649442
C 102.240716 26.0327244 0.0127883572
C 102.2884 27.4347401 0.150313117
C 103.528887 28.1339945 0.129501538
C 103.543447 29.5502041 0.266872392
C 104.719745 25.9885398 0.05587145
C 104.793888 27.4012861 0.0297300788
C 106.047617 28.074169 0.0286322902
C 106.031964 29.5550988 0.144663745
C 107.246711 25.9383429 -0.0641641381
C 107.283314 27.3497156 0.0102615853
C 108.454234 28.0732104 0.0907388984
C 108.473682 29.5667021 0.205293367
C 109.720407 25.9851672 -0.206938624
C 109.728569 27.4088026 0.00103224744
C 110.991481 28.0995982 0.0726986539
C 110.991831 29.5643708 0.0598016494
C 112.178494 25.9769832 -0.261314453
C 112.227185 27.3803834 -0.111687269
C 113.460701 28.1252087 -0.144156672
C 113.469912 29.5723548 -0.0528659514
C 114.697706 26.0101072 -0.438473628
C 114.669642 27.4092214 -0.254798331
C 115.876413 28.1541285 -0.184689768
C 115.924566 29.5727562 -0.0268771754
C 117.196326 25.9808169 -0.420930513
C 117.179902 27.4444174 -0.308039285
C 118.452593 28.1277174 -0.170938912
C 118.414175 29.5431275 -0.035805058
C 119.699378 25.9667277 -0.240135244
C 119.715734 27.3872285 -0.163275821
C 120.911672 28.1415466 -0.113243685
C 120.948351 29.5596701 -0.116913948
C 122.17282 25.947964 -0.148190108
C 122.173862 27.3677572 -0.04530905
C 123.439042 28.1324613 -0.0182674131
C 123.403431 29.5619 0.0676877045
C 124.66166 25.997288 -0.117765948
C 124.655319 27.4148385 -0.00890178457
C 125.941419 28.1190433 0.0207153075
C 125.98781 29.5819166 0.123098956
C 127.215196 25.9489623 -0.0707087707
C 127.18641 27.4210641 0.0105245897
C 128.427793 28.138917 0.0511858169
C 128.43743 29.5747612 0.100387641
C 129.694203 25.9091494 0.00849586082
C 129.624791 27.3612409 0.147925758
C 130.914784 28.1042796 0.251194246
C 130.922237 29.5301426 0.206388876
C 132.142629 25.9272251 0.134891698
C 132.179162 27.386869 0.163219737
C 133.418644 28.1048279 0.169746942
C 133.417239 29.556742 0.227403633
C 134.632311 25.9429862 0.109830064
C 134.646168 27.3703598 0.165716116
C 135.892101 28.0764873 0.245341334
C 135.910698 29.5145373 0.262885065
C 137.148188 25.9700947 0.0235270983
C 137.169735 27.4047227 0.0228807562
C 138.389193 28.0878094 -0.0186368576
C 138.423948 29.539898 0.012137356
C 139.598786 25.8826214 0.0249327153
C 139.635062 27.3120727 0.0532994113
C 140.914429 28.071041 0.121800862
C 140.90956 29.5244924 0.0342020513
C 142.160476 25.912184 0.016427431
C 142.161592 27.317547 0.0743265642
C 143.380686 28.1194263 0.0979736141
C 143.373325 29.5749097 0.134362262
C 144.636672 25.8921676 0.0504477597
C 144.619186 27.3682832 0.06831188
C 145.818406 28.1232124 0.141369387
C 145.868053 29.5576817 0.171531664
C 147.109315 25.8898679 0.0478264634
C 147.055143 27.3598962 0.130291877
C 148.362239 28.1134182 0.152106592
C 148.421971 29.561038 0.190920613
C 149.642806 25.9694154 0.201485137
C 149.62879 27.4052679 0.189140119
C 150.931695 28.1162188 0.397727163
C 150.872393 29.5404098 0.44946978
C 152.194568 25.9092483 0.323399528
C 152.133296 27.3400396 0.393699893
C 153.37374 28.0971765 0.454370574
C 153.374744 29.5390448 0.559751047
C 154.621549 25.9469586 0.413477676
C 154.614696 27.3936341 0.463123097
C 155.884354 28.122777 0.509170748
C 155.955098 29.6216305 0.592188725
C 157.127728 25.9508856 0.400289492
C 157.143357 27.3983917 0.460145591
C 158.385734 28.1130228 0.630153933
C 158.399727 29.5570573 0.614937298
C 159.669666 25.9151007 0.43844676
C 159.64115 27.4225427 0.527243175
C 160.881236 28.1017357 0.476812084
C 160.860138 29.5355509 0.555799707
C 162.161654 25.9121399 0.39870565
C 162.153365 27.3597131 0.478558963
C 163.353298 28.0793338 0.540305004
C 163.341676 29.5409028 0.686187096
C 164.676963 25.9614837 0.381673685
C 164.66807 27.38575 0.458288669
C 165.877237 28.1139816 0.47793667
C 165.83692 29.5323124 0.588184482
C 167.131752 25.9435877 0.444458526
C 167.118374 27.3531622 0.378171399
C 168.36782 28.0921659 0.449001483
C 168.349812 29.5006408 0.606354518
C 169.645217 25.9615521 0.436634115
C 169.609627 27.3508696 0.538340285
C 170.844784 28.0241324 0.60593955
C 170.844215 29.5121478 0.645342352
C 172.087105 25.9250746 0.350693953
C 172.101659 27.336381 0.448654681
C 173.308779 28.0773779 0.48011235
C 173.360262 29.5680841 0.575940431
C 174.585709 25.880241 0.300491384
C 174.637821 27.3349957 0.449819328
C 175.842727 28.1049272 0.477158792
C 175.864182 29.5439753 0.584279878
C 177.07924 25.9318172 0.206351873
C 177.081914 27.3623256 0.415789343
C 178.328941 28.1015007 0.492355835
C 178.327857 29.5518306 0.5430854
C 179.586749 25.9353231 0.223510296
C 179.544525 27.3618532 0.422163637
C 180.824109 28.0995867 0.329100428
C 180.829959 29.546138 0.355174652
C 182.073724 25.9880365 0.0861550947
C 182.100746 27.3878181 0.205422332
C 183.377989 28.1197374 0.0839580229
C 183.338899 29.5352199 -0.000986694401
C 184.565813 25.9326021 -0.295242544
C 184.595936 27.4081545 -0.0946930939
C 185.836381 28.0881933 -0.256916162
C 185.801565 29.606309 -0.293623411
C 187.042055 25.941054 -0.724721696
C 187.094583 27.4192121 -0.520914496
C 188.317254 28.1089272 -0.607661
C 188.312442 29.5405127 -0.551401096
C 189.601619 25.9813975 -0.657737546
C 189.592652 27.3913595 -0.658789714
C 190.809675 28.1306656 -0.67238052
C 190.793418 29.5622585 -0.701549548
C 192.074409 25.9509513 -0.71563734
C 192.079266 27.3811923 -0.704668821
C 193.295069 28.1170976 -0.827750938
C 193.253783 29.6088903 -0.913734108
C 194.537786 26.0202394 -0.817627857
C 194.556475 27.4150792 -0.874253316
C 195.811527 28.1660946 -1.07887896
C 195.738001 29.5910651 -1.23399415
C 197.018166 26.011257 -0.903228842
C 197.066607 27.4617202 -0.985378401
C 198.333557 28.1593258 -1.0777255
C 198.288798 29.5884831 -1.12394445
C 199.49002 26.0143549 -0.756257901
C 199.592126 27.4267281 -0.953432623
C 200.817206 28.1247379 -1.00223887
C 200.767595 29.5532067 -0.97619088
C 202.037847 25.9543767 -0.880414565
C 202.060104 27.4094871 -1.01229227
C 203.302545 28.1350635 -1.04716975
C 203.236514 29.541953 -0.964133222
C 204.576937 25.9190756 -1.01097897
C 204.522115 27.404717 -1.04233892
C 205.782128 28.1015218 -1.0110756
C 205.750264 29.5119789 -0.999768183
C 207.037077 25.9507017 -0.855783731
C 207.008638 27.3912255 -0.978919242
C 208.287456 28.0897886 -0.879187407
C 208.258853 29.5253266 -0.903038606
C 209.555916 25.9887568 -0.652923705
C 209.505746 27.4185087 -0.800076801
C 210.787386 28.1172593 -0.746097406
C 210.783407 29.5856843 -0.805785791
C 212.013287 25.9936546 -0.557735501
C 212.045587 27.4000156 -0.698982986
C 213.28228 28.1374609 -0.656185714
C 213.305603 29.5562481 -0.597457698
C 214.550509 25.9420023 -0.525617147
C 214.513544 27.3807189 -0.534257805
C 215.740087 28.0767573 -0.45086222
C 215.741744 29.5509751 -0.44101317
C 217.017105 25.9381372 -0.347789402
C 216.983879 27.3548376 -0.390501805
C 218.211745 28.1040404 -0.270390449
C 218.228256 29.5487441 -0.194639765
C 219.481172 25.9851111 -0.161410443
C 219.473295 27.4166896 -0.211534835
C 220.69665 28.1371763 -0.126115004
C 220.716739 29.552276 -0.150843782
C 221.946217 25.9695063 -0.134504276
C 221.979972 27.3760911 -0.159543979
C 223.223579 28.0860587 -0.304866229
C 223.210595 29.532351 -0.39782513
C 224.467729 25.9573055 -0.237003894
C 224.477394 27.4070775 -0.296994507
C 225.781824 28.1034111 -0.190079661
C 225.71946 29.5841165 -0.140670685
C 226.973913 25.9101804 -0.125592438
C 226.950257 27.3549009 -0.085636996
C 228.179684 28.0778626 0.156900378
C 228.204315 29.5370458 0.0962648872
C 229.445343 25.9387213 0.339034135
C 229.457019 27.3861841 0.31677019
C 230.681596 28.128475 0.404213998
C 230.657485 29.5795384 0.294562724
C 231.886289 25.9487564 0.577842663
C 231.907073 27.3917624 0.561500017
C 233.166491 28.119019 0.525557998
C 233.1596 29.5365959 0.287517207
C 234.396268 25.9410711 0.74372641
C 234.418499 27.3679795 0.624499333
C 235.662749 28.0805721 0.572969858
C 235.690288 29.5678422 0.428309857
C 236.908102 25.8966987 0.590129165
C 236.934856 27.3132551 0.591612418
C 238.176655 28.0934077 0.570649774
C 238.149472 29.5447926 0.543920259
C 239.392562 25.9647444 0.442911959
C 239.388192 27.4262634 0.522925702
C 240.644496 28.1290227 0.379551712
C 240.675895 29.5827095 0.373247535
C 241.899508 25.9760745 0.287428542
C 241.911721 27.4364677 0.325274925
C 243.17884 28.1236256 0.230167513
C 243.140272 29.580922 0.23845654
C 244.38253 25.9297956 0.170993296
C 244.392521 27.3747686 0.172914684
C 245.642584 28.1089164 0.0380306321
C 245.658565 29.5193897 0.0285597574
C 246.883291 25.8826189 -0.121684888
C 246.90268 27.3263334 -0.0129482511
C 248.121288 28.0484442 -0.179345733
C 248.165549 29.5275999 -0.169394769
C 0.0192278953 30.2074865 -0.0784382919
C 249.378243 31.6597334 -0.0170711915
C 1.22818229 32.374821 -0.0943948606
C 1.22309286 33.7900128 -0.107387276
C 2.43520429 30.1803217 -0.231497506
C 2.44469977 31.6733952 -0.214228621
C 3.73484527 32.3408391 -0.1317912
C 3.74120941 33.8005415 -0.13360342
C 4.96905748 30.1896369 -0.0440124978
C 4.94915363 31.6137251 0.00615098257
C 6.19971965 32.3725434 0.177260226
C 6.21242513 33.8347118 0.0902313712
C 7.4287761 30.2469274 0.158921732
C 7.46903502 31.6766557 0.124623003
C 8.72414475 32.3975787 0.0931543457
C 8.73688712 33.8048908 0.119952822
C 9.95745031 30.2341506 0.154574803
C 10.0020211 31.6814201 0.0865643094
C 11.2187123 32.431068 0.0343907713
C 11.2402486 33.8503021 0.0829862177
C 12.4848272 30.3054315 0.100531387
C 12.4992502 31.7405083 0.0855385603
C 13.756964 32.4513595 0.182381607
C 13.7423215 33.8869555 0.159462509
C 14.9564138 30.2805776 0.207326127
C 14.9753975 31.7337698 0.162426763
C 16.2083296 32.4613002 0.137930195
C 16.2735563 33.910869 0.159427185
C 17.4519381 30.2650036 0.25758686
C 17.4703833 31.7140449 0.206519433
C 18.7282175 32.415349 0.324751788
C 18.7799166 33.823533 0.415462425
C 19.9930433 30.2711135 0.510382008
C 19.9820948 31.6951535 0.413531921
C 21.2348779 32.4191377 0.588593544
C 21.2100858 33.8395328 0.656143442
C 22.433119 30.190501 0.62837572
C 22.4535745 31.6810188 0.68242144
C 23.7030176 32.4295693 0.830964313
C 23.6989727 33.8383917 0.932622539
C 24.9111571 30.2208078 0.83521267
C 24.8813465 31.6317436 0.89538397
C 26.128029 32.3354557 1.12785864
C 26.1272055 33.8040082 1.08738811
C 27.3804328 30.193888 1.11544503
C 27.3399708 31.5954358 1.22022205
C 28.6143251 32.3309397 1.18830079
C 28.6013273 33.7531783 1.21335801
C 29.8455973 30.2194683 1.15284937
C 29.8315831 31.6488823 1.19787406
C 31.0921221 32.3914699 1.24952924
C 31.139747 33.7865766 1.26533837
C 32.350947 30.2291608 1.04025228
C 32.3536638 31.6862664 1.2119127
C 33.6171812 32.3633389 1.10695101
C 33.6693002 33.8598875 1.19302067
C 34.8835557 30.2034264 1.03515067
C 34.8955817 31.64263 1.07236897
C 36.1580351 32.392923 1.07254007
C 36.1781489 33.7762234 1.14173686
C 37.3718685 30.2006742 1.05004079
C 37.4037462 31.6529493 0.975612656
C 38.6086686 32.3618324 1.06832587
C 38.6392348 33.8260389 1.07992643
C 39.8763753 30.1930854 1.21006564
C 39.8374639 31.6176312 1.19723714
C 41.1343157 32.3528478 1.2036082
C 41.1352142 33.7973519 1.11177362
C 42.4118828 30.180651 1.35429213
C 42.3502462 31.583944 1.28752453
C 43.5973196 32.3517514 1.28220251
C 43.6035338 33.7754291 1.1501123
C 44.8651347 30.2118194 1.29731478
C 44.8473593 31.6280851 1.33302372
C 46.1164356 32.3624095 1.2841249
C 46.1072193 33.7829606 1.19191026
C 47.4629353 30.2131709 1.23661752
C 47.4214913 31.6527354 1.27531764
C 48.6904149 32.3351366 1.17659314
C 48.622686 33.774104 1.08411794
C 49.9586807 30.2525349 1.05847234
C 49.9477088 31.6615919 1.15171527
C 51.1429608 32.3604602 1.09515522
C 51.1361108 33.8260859 0.865508255
C 52.3773345 30.1713071 0.796016291
C 52.374221 31.6170707 0.922624043
C 53.6137502 32.3002325 0.690498552
C 53.6343772 33.806177 0.634742535
C 54.8289234 30.225332 0.347550193
C 54.823471 31.6128552 0.450522216
C 56.0818723 32.3852072 0.282369245
C 56.0870946 33.8086585 0.313481047
C 57.3436541 30.2483432 0.110285572
C 57.3731275 31.6569392 0.131297486
C 58.5905185 32.3518374 0.265628174
C 58.6283315 33.7911236 0.262115093
C 59.8408421 30.1607337 0.12224601
C 59.8601972 31.6086981 0.208935692
C 61.1131507 32.3865429 0.231667948
C 61.0834402 33.8095442 0.276138434
C 62.3342273 30.179485 0.144141234
C 62.4105891 31.6318075 0.189137921
C 63.655316 32.3221296 0.331032619
C 63.6945796 33.8050853 0.32278595
C 64.8689697 30.203138 0.144746353
C 64.9371914 31.6693184 0.265689328
C 66.156238 32.40155 0.301723773
C 66.1290022 33.8313413 0.238408884
C 67.3585497 30.2748638 0.0925254382
C 67.3711084 31.70875 0.137537612
C 68.5852373 32.408026 0.00826075376
C 68.6170869 33.8907439 -0.0342152118
C 69.8242244 30.2851663 0.146455476
C 69.8198792 31.6833168 0.0160563759
C 71.1206799 32.3843225 -0.0462726859
C 71.078299 33.8503806 -0.071768157
C 72.3316061 30.2801323 0.0203223862
C 72.3425306 31.7051279 0.000887415358
C 73.5670261 32.413716 0.0429008697
C 73.5624995 33.8415012 -0.0641601753
C 74.8359839 30.2400439 0.0318595817
C 74.7740879 31.7071535 0.0251308611
C 76.0775103 32.3873236 0.0260616668
C 76.0977253 33.8433723 -0.0158302724
C 77.3112125 30.2647385 0.0866955078
C 77.3265108 31.7111705 0.0621177933
C 78.5587802 32.4005004 0.0928395665
C 78.6139853 33.8267356 0.0437831396
C 79.8129544 30.3252191 0.103049362
C 79.8160526 31.7232736 0.123819227
C 81.0828576 32.388948 0.196888153
C 81.0888021 33.8488317 0.143208169
C 82.3743116 30.2860829 0.0639899299
C 82.3294963 31.7369067 0.153222369
C 83.6036946 32.4034486 0.162786013
C 83.5943982 33.8280844 0.319581626
C 84.8511861 30.323064 0.0903671693
C 84.8513648 31.7343919 0.14765354
C 86.1086287 32.4561187 0.163247737
C 86.0942964 33.8688825 0.255118927
C 87.333174 30.3091576 0.143234221
C 87.3280789 31.7254507 0.133329271
C 88.5712878 32.4469529 0.108015577
C 88.576381 33.8572048 -0.0282437348
C 89.8033477 30.2839076 0.288616192
C 89.7524812 31.7269346 0.217169964
C 91.0494145 32.4282134 0.29643062
C 91.0620235 33.9031918 0.0972917578
C 92.3137348 30.2495857 0.498697378
C 92.3230046 31.7251233 0.398718439
C 93.5475944 32.4619912 0.279889445
C 93.5570191 33.8742315 0.333147197
C 94.7949774 30.2923152 0.314380552
C 94.7841765 31.7402123 0.320504715
C 96.0518844 32.4558227 0.382460136
C 96.0070916 33.8982604 0.449635811
C 97.3390667 30.2772837 0.416777104
C 97.3538667 31.7026632 0.444241115
C 98.5653129 32.3811071 0.596830876
C 98.5199634 33.8373892 0.589477937
C 99.8183607 30.2472121 0.451738527
C 99.8211106 31.627944 0.572983789
C 101.029949 32.4000804 0.605194431
C 101.014478 33.865768 0.626241712
C 102.283443 30.2613637 0.386004653
C 102.29945 31.6844651 0.491924014
C 103.499623 32.4290198 0.409102308
C 103.534768 33.8648489 0.467614468
C 104.813204 30.2686573 0.28506172
C 104.785794 31.6969795 0.29281784
C 106.023995 32.4363973 0.322767908
C 106.002601 33.8718862 0.428996167
C 107.259372 30.2625662 0.205780373
C 107.219387 31.7162013 0.255246202
C 108.501412 32.4027572 0.261962987
C 108.478279 33.8619457 0.297317538
C 109.71522 30.3081333 0.13672606
C 109.718248 31.7240802 0.174568077
C 110.994601 32.4282123 0.2568747
C 110.934562 33.8658291 0.414472426
C 112.220824 30.2153588 -0.00413106261
C 112.247429 31.6768552 0.101198703
C 113.465247 32.4137045 0.139805614
C 113.487124 33.8732541 0.300069423
C 114.687854 30.3014717 0.0103286772
C 114.711326 31.7032152 0.0267783
C 115.925673 32.443209 0.059185192
C 115.925541 33.8826947 0.203581766
C 117.21586 30.2466763 0.0646514652
C 117.208715 31.6832177 0.0763752743
C 118.439029 32.474899 0.100550088
C 118.474832 33.8784054 0.184446137
C 119.680273 30.2829022 -0.0465759056
C 119.68484 31.7430253 0.0937178012
C 120.939561 32.4967622 0.126983193
C 120.939221 33.9185015 0.210812351
C 122.15424 30.2784854 0.0300157917
C 122.190594 31.7402241 0.150972806
C 123.479872 32.4643795 0.261228595
C 123.416123 33.87646 0.294413196
C 124.726406 30.254895 0.160294632
C 124.722591 31.6705138 0.209267629
C 125.961164 32.4196651 0.307841246
C 125.924337 33.845944 0.343070589
C 127.210972 30.3185206 0.143429625
C 127.226109 31.7432633 0.253113388
C 128.479004 32.4384365 0.361844978
C 128.459957 33.8825725 0.493064092
C 129.680739 30.2531508 0.178792399
C 129.674768 31.6608806 0.282935947
C 130.897621 32.4220017 0.214649897
C 130.889859 33.8604244 0.29037279
C 132.17432 30.2501903 0.245763069
C 132.151356 31.6869657 0.212396187
C 133.392714 32.4502624 0.178711441
C 133.405125 33.8894495 0.262897664
C 134.655353 30.2788684 0.196069931
C 134.640777 31.7457344 0.168101567
C 135.936006 32.4496315 0.156822966
C 135.908635 33.8925314 0.276087963
C 137.1535 30.2544207 0.105906911
C 137.212162 31.7117798 0.115560088
C 138.445504 32.4333304 0.123412138
C 138.42545 33.9191386 0.172040712
C 139.683896 30.2665382 -0.0164743863
C 139.659186 31.7607528 -0.00119023483
C 140.939037 32.4558453 0.0253872241
C 140.934032 33.8865423 0.220802128
C 142.159955 30.3050566 0.089690911
C 142.192597 31.7518347 0.0702744486
C 143.396884 32.4896281 0.196184535
C 143.417777 33.9544268 0.320355647
C 144.630864 30.325096 0.133644309
C 144.627147 31.7390509 0.288882604
C 145.893609 32.3978833 0.458068288
C 145.889481 33.8972581 0.511693859
C 147.173897 30.2801534 0.175638837
C 147.180286 31.7472269 0.405874658
C 148.452866 32.4681612 0.475642265
C 148.428899 33.9142147 0.5802464
C 149.65424 30.2632027 0.396801343
C 149.687327 31.7130948 0.468596808
C 150.907309 32.4544124 0.607642929
C 150.939715 33.9054574 0.617829826
C 152.133611 30.2747526 0.584478262
C 152.133801 31.7032131 0.707592497
C 153.367184 32.3943807 0.868372779
C 153.385161 33.8345435 0.895125688
C 154.626305 30.2997554 0.667291474
C 154.631036 31.741382 0.761401046
C 155.902807 32.4299414 0.74030274
C 155.918062 33.8653192 0.800928559
C 157.205272 30.2691673 0.635098439
C 157.196569 31.729407 0.698119823
C 158.422442 32.4737079 0.716103837
C 158.445142 33.9244799 0.75746842
C 159.645611 30.2735228 0.595521672
C 159.659803 31.7636766 0.667280741
C 160.903234 32.4665376 0.751529154
C 160.91873 33.9090525 0.868392737
C 162.088294 30.2248447 0.699507296
C 162.117187 31.7181977 0.772240617
C 163.378879 32.4075942 0.794178024
C 163.440783 33.8443072 0.835723607
C 164.614366 30.231941 0.694282788
C 164.615435 31.6719207 0.625542279
C 165.858954 32.4347411 0.547160268
C 165.922694 33.8733946 0.605159711
C 167.091463 30.2190155 0.568420198
C 167.120546 31.7025406 0.523292972
C 168.369708 32.3817113 0.567090723
C 168.423534 33.8321197 0.574958833
C 169.566161 30.2431057 0.704112678
C 169.598426 31.6601218 0.724555267
C 170.856744 32.4044577 0.679509259
C 170.871037 33.817763 0.688211727
C 172.08661 30.2790845 0.703838357
C 172.099358 31.7134515 0.688960183
C 173.439034 32.4055558 0.716155201
C 173.395424 33.8201262 0.721618824
C 174.637965 30.2682944 0.55260256
C 174.653658 31.7261223 0.682774302
C 175.908532 32.4329651 0.739464461
C 175.865245 33.886992 0.704365702
C 177.116385 30.2808424 0.556768435
C 177.123296 31.6986062 0.622780588
C 178.390362 32.3940041 0.596830935
C 178.362812 33.8418103 0.57581462
C 179.581713 30.2647983 0.477145503
C 179.634597 31.7145522 0.542941118
C 180.840114 32.4035063 0.346388574
C 180.860223 33.8207311 0.323194805
C 182.050291 30.2765199 0.182897873
C 182.10448 31.6943283 0.222772149
C 183.330237 32.4179417 0.0606169891
C 183.340646 33.8653322 0.164407572
C 184.567505 30.2656801 -0.130755664
C 184.569358 31.7159229 -0.105278904
C 185.809615 32.4495218 -0.249261908
C 185.792847 33.8892877 -0.111770801
C 187.021544 30.2605929 -0.481386854
C 187.074469 31.6955626 -0.415957483
C 188.315206 32.4227447 -0.456221182
C 188.279727 33.8945068 -0.386966534
C 189.533492 30.27524 -0.580434445
C 189.543313 31.7450766 -0.520282773
C 190.783699 32.4255616 -0.620385298
C 190.752917 33.8966444 -0.694202987
C 192.028117 30.2661488 -0.77419745
C 192.026506 31.7258589 -0.795528211
C 193.259984 32.4311136 -0.939819636
C 193.268271 33.8919472 -0.827718191
C 194.516298 30.3111556 -1.16195461
C 194.494749 31.7258171 -1.13018192
C 195.738099 32.4308973 -1.12144205
C 195.741746 33.8414041 -0.934646799
C 197.058468 30.2861396 -1.26468469
C 196.964752 31.7225848 -1.11424305
C 198.260101 32.4471979 -1.00256319
C 198.272357 33.8442258 -0.902312815
C 199.502576 30.247735 -0.992485644
C 199.495271 31.6986219 -0.95461875
C 200.736094 32.4199276 -0.810932529
C 200.775491 33.8817475 -0.732892421
C 202.000364 30.2629008 -0.97536705
C 202.033217 31.7095903 -0.879089005
C 203.26423 32.4005294 -0.841032568
C 203.27169 33.8315438 -0.644710855
C 204.555606 30.2475941 -0.956409366
C 204.493608 31.682026 -0.930764989
C 205.776282 32.418332 -0.833054272
C 205.742334 33.8416034 -0.69768909
C 206.99299 30.249682 -0.934425983
C 207.004989 31.6678541 -0.882067554
C 208.276278 32.4265814 -0.817854257
C 208.250957 33.8836395 -0.781543642
C 209.487519 30.2676354 -0.862533951
C 209.513704 31.7068342 -0.775780379
C 210.764851 32.4407495 -0.75517432
C 210.736211 33.8786765 -0.646478403
C 212.032539 30.2866349 -0.677078967
C 212.051864 31.7583048 -0.766114057
C 213.277316 32.4693628 -0.68029438
C 213.25506 33.919515 -0.683363669
C 214.521634 30.2894618 -0.544886403
C 214.504509 31.7698982 -0.47824369
C 215.733767 32.4748916 -0.310340772
C 215.720274 33.9388731 -0.423286497
C 216.971833 30.2947964 -0.253064573
C 216.99419 31.7518179 -0.263689749
C 218.253071 32.4970811 -0.281928186
C 218.232704 33.9271336 -0.278397303
C 219.488569 30.2541119 -0.1399208
C 219.484325 31.7348159 -0.206891743
C 220.733033 32.412581 -0.181629299
C 220.725819 33.8427591 -0.14985754
C 221.958947 30.2611452 -0.222984057
C 221.98126 31.7053554 -0.130207966
C 223.183801 32.4479425 -0.127212652
C 223.225784 33.8666727 -0.132818998
C 224.406313 30.2602815 -0.318964591
C 224.421134 31.7281464 -0.191600065
C 225.682101 32.4515694 -0.0863919796
C 225.701018 33.8897998 -0.0845023504
C 226.965585 30.2955373 -0.0217480264
C 226.96812 31.7366547 -0.00585052697
C 228.206467 32.4442557 -0.0420613308
C 228.219049 33.9403262 -0.100424008
C 229.434508 30.3023965 0.0986740534
C 229.420618 31.7071194 -0.0143182302
C 230.670325 32.48755 0.0252227635
C 230.700604 33.9025763 -0.0245672919
C 231.92888 30.2737967 0.201003683
C 231.933966 31.732204 0.108843246
C 233.199022 32.4761799 0.102767032
C 233.199208 33.8706234 -0.00144223614
C 234.419453 30.3019491 0.370637161
C 234.427565 31.7961075 0.338638533
C 235.712457 32.4558869 0.448315305
C 235.661303 33.8715115 0.358246349
C 236.905668 30.2952755 0.53144095
C 236.934128 31.7382639 0.580827924
C 238.186489 32.4637574 0.545852029
C 238.157673 33.866059 0.521411363
C 239.379274 30.2600773 0.503169481
C 239.436474 31.7071098 0.51610664
C 240.655406 32.4767393 0.442752772
C 240.656965 33.9241357 0.386610106
C 241.879646 30.2812978 0.354571034
C 241.909089 31.7388748 0.364204994
C 243.129548 32.4291452 0.278495673
C 243.127985 33.8724129 0.104454813
C 244.403231 30.3042292 0.175794222
C 244.397 31.742877 0.166361686
C 245.62669 32.4449428 0.0185249888
C 245.624712 33.8731697 -0.0034468058
C 246.899292 30.2490682 -0.102897995
C 246.8987 31.6793547 -0.004914923
C 248.184132 32.3604866 0.0437135146
C 248.11737 33.8402892 -0.0199475145
C 249.384466 34.5292651 -0.0608596365
C 249.382137 35.9637387 -0.0359899858
C 1.20796412 36.7109337 -0.0728381823
C 1.2735206 38.1465992 -0.0888910309
C 2.47230879 34.5501577 -0.0765345083
C 2.49455845 35.9880896 -0.0540765228
C 3.7583614 36.7215642 -0.26767725
C 3.75642168 38.1750527 -0.29270713
C 4.94457004 34.5420975 -0.0851326415
C 4.96005399 35.9811512 -0.228334325
C 6.21984628 36.6487622 -0.150738633
C 6.23819729 38.0936509 -0.246636693
C 7.49377718 34.511308 0.0542427033
C 7.46145763 35.9167848 0.0130924435
C 8.68455441 36.714617 0.0978216637
C 8.72275319 38.1497607 0.0858351077
C 9.9897246 34.5306818 0.117169726
C 9.9341467 35.9856576 0.13595441
C 11.1921376 36.7254608 0.342347798
C 11.2084628 38.1815494 0.331016297
C 12.4635685 34.6249676 0.121086667
C 12.4960128 36.0049354 0.345003865
C 13.7348964 36.7354373 0.509535222
C 13.7393057 38.1950051 0.536071067
C 14.9894852 34.6201205 0.255730276
C 14.9494144 36.0511581 0.543797156
C 16.2573261 36.7301772 0.531874516
C 16.1836483 38.1690744 0.599033899
C 17.5339493 34.6259457 0.3342285
C 17.4922771 36.038555 0.501254998
C 18.7097955 36.7168005 0.614720094
C 18.6657547 38.1570728 0.707171226
C 20.0116012 34.5656618 0.599412249
C 19.9776775 35.9694281 0.73399177
C 21.2085511 36.7434006 0.884122146
C 21.1986933 38.17252 0.968981807
C 22.4293908 34.5435083 0.842566651
C 22.4245734 35.9912879 0.929084284
C 23.6452543 36.6960461 1.03730987
C 23.683422 38.1121845 1.16634481
C 24.9013375 34.5284587 0.993745814
C 24.901108 35.9486684 1.04275562
C 26.1558786 36.6730687 1.16207653
C 26.1180756 38.1054813 1.16281331
C 27.3488368 34.5201526 1.20435741
C 27.3994364 35.9384444 1.25562486
C 28.6226175 36.6500431 1.259407
C 28.5820701 38.1056924 1.21224201
C 29.8691492 34.4653538 1.30429279
C 29.871196 35.9395801 1.28903122
C 31.1235733 36.6477643 1.2800731
C 31.1333824 38.0941764 1.28034662
C 32.3898243 34.4813831 1.18514448
C 32.3880447 35.9301562 1.30995661
C 33.6609882 36.636572 1.29198503
C 33.6365408 38.0749323 1.34148765
C 34.9178861 34.543764 1.23847098
C 34.894725 35.943452 1.29648779
C 36.1712032 36.6678202 1.21605475
C 36.1395352 38.1016368 1.24844319
C 37.403868 34.5183815 1.0746067
C 37.4144992 35.9583298 1.11088042
C 38.6149633 36.6791484 1.075706
C 38.6317039 38.1394765 1.09559991
C 39.8812416 34.5595121 1.19868258
C 39.9155756 36.0340144 1.16164265
C 41.1544455 36.729057 1.18270394
C 41.1635895 38.1531583 1.17649226
C 42.377104 34.5277389 1.12257856
C 42.3797223 35.9547474 1.18151727
C 43.6371084 36.6740441 1.16773525
C 43.6513059 38.1223878 1.07487443
C 44.8349487 34.4973285 1.1196853
C 44.8784991 35.9426307 1.03953246
C 46.1171674 36.672408 0.970944297
C 46.1159786 38.1251592 0.878852837
C 47.3683332 34.5012945 1.10177602
C 47.3823514 35.9360904 0.993463363
C 48.6402612 36.6745006 0.825844314
C 48.6529886 38.0972983 0.717940749
C 49.8646704 34.5034866 0.938060547
C 49.8688261 35.9312464 0.781755145
C 51.1196896 36.63778 0.621764532
C 51.0951211 38.106793 0.527822399
C 52.3918118 34.5502683 0.704999572
C 52.4035415 35.9721115 0.501129418
C 53.6573848 36.6576897 0.410353282
C 53.5943696 38.1432115 0.435570978
C 54.8764276 34.5562659 0.512032319
C 54.8933475 35.9591715 0.36472633
C 56.0838916 36.6998441 0.367487198
C 56.145333 38.1221454 0.367742176
C 57.3771292 34.5554386 0.299558109
C 57.3099788 35.9768025 0.300149824
C 58.5766133 36.7039867 0.329531303
C 58.6325754 38.1176257 0.245586718
C 59.8570206 34.5015477 0.238692094
C 59.8753455 35.9487767 0.265904118
C 61.1135846 36.6951614 0.343905209
C 61.1359853 38.1590347 0.269419769
C 62.3702328 34.5358985 0.349382224
C 62.3860699 35.9897012 0.377542945
C 63.6538903 36.7146087 0.420424514
C 63.6059246 38.1196801 0.290929168
C 64.9008878 34.5714795 0.266540646
C 64.9761887 35.970712 0.324660293
C 66.17886 36.7166671 0.267857069
C 66.1246043 38.1671726 0.18396883
C 67.3493087 34.6102545 0.113166725
C 67.3789275 36.0023549 0.174448214
C 68.6273216 36.7298162 -0.0873510439
C 68.5312348 38.1744733 0.0459549763
C 69.8582214 34.5727376 -0.130087972
C 69.9108846 36.0069589 -0.176405656
C 71.1212501 36.7026105 -0.19296676
C 71.0709883 38.1739189 -0.0335175866
C 72.3604713 34.6034041 -0.124074251
C 72.3993204 36.027151 -0.214493456
C 73.615268 36.7326668 -0.1194961
C 73.6449763 38.1597451 -0.0965343002
C 74.8537868 34.5743382 0.00487738189
C 74.874229 36.0207513 -0.0186664392
C 76.1079615 36.7166598 0.0125316086
C 76.1473519 38.1889328 0.0346173322
C 77.3497976 34.5381632 -0.000736840683
C 77.3337176 35.9572489 0.0244751228
C 78.5986833 36.6910084 0.0698468935
C 78.5733849 38.1351984 0.0148960704
C 79.8593465 34.5776533 0.112816471
C 79.8651084 36.0031107 0.150225883
C 81.0978103 36.7545139 0.16319885
C 81.0837383 38.2184468 0.181941757
C 82.3441489 34.5601522 0.26754334
C 82.3420023 36.0141457 0.19091572
C 83.5687251 36.7044488 0.319841156
C 83.5767119 38.1397957 0.359715255
C 84.8108617 34.574703 0.294995276
C 84.8368265 36.0263625 0.257764816
C 86.0863913 36.6948465 0.171058958
C 86.08232 38.1424591 0.192203105
C 87.3483871 34.5498031 0.040414352
C 87.308859 35.9796862 0.0102827671
C 88.5310238 36.7442099 -0.0115025231
C 88.5556151 38.1307419 -0.0246583015
C 89.7977768 34.5611577 -0.0475272653
C 89.8080546 35.9992104 -0.0964520635
C 91.0390154 36.7540063 -0.0678570399
C 91.0212929 38.1922425 -0.0765415439
C 92.276436 34.5819402 0.283852757
C 92.2839502 36.0578864 0.126753032
C 93.5009656 36.7498623 0.18016239
C 93.5383021 38.171588 0.159460265
C 94.808728 34.591417 0.424575388
C 94.7842983 36.0580545 0.369370197
C 96.0454616 36.7738169 0.454581167
C 96.0161958 38.1986468 0.430190087
C 97.2561704 34.5609178 0.49897907
C 97.2518596 36.0112667 0.445550935
C 98.5036016 36.6808278 0.444528638
C 98.5078187 38.1569962 0.451372351
C 99.7918867 34.5964886 0.643307278
C 99.8057099 35.9886729 0.561133929
C 101.013818 36.7287538 0.579594195
C 101.034561 38.1724331 0.499520527
C 102.222575 34.5769079 0.538879345
C 102.238857 35.9949413 0.57171819
C 103.494073 36.7199368 0.554629262
C 103.51953 38.1973689 0.522779869
C 104.788331 34.5949526 0.520947522
C 104.76552 36.0349024 0.646737374
C 106.046305 36.7288324 0.625688353
C 106.003574 38.1705966 0.548034347
C 107.21809 34.5906449 0.31592746
C 107.262345 36.041534 0.362634778
C 108.507448 36.7288253 0.255517124
C 108.470522 38.1958368 0.429050404
C 109.750277 34.5588261 0.339415561
C 109.727651 36.0145271 0.298486773
C 110.962824 36.7330299 0.436746095
C 110.987076 38.1884621 0.593202873
C 112.214269 34.5526547 0.427240785
C 112.204546 35.9894824 0.401409976
C 113.455148 36.7081425 0.381865435
C 113.476111 38.1898693 0.539254664
C 114.680144 34.589945 0.275168966
C 114.715621 36.0319166 0.300838381
C 115.963841 36.7596339 0.216239707
C 115.99458 38.1885188 0.381619411
C 117.23463 34.5816227 0.131354363
C 117.198144 35.9876471 0.243873458
C 118.432129 36.7210003 0.343003366
C 118.50201 38.1873102 0.406465757
C 119.67521 34.5910003 0.303006473
C 119.715693 36.0146743 0.415534817
C 120.929603 36.8050408 0.532027919
C 120.937189 38.2162046 0.624558107
C 122.20278 34.6068064 0.330761061
C 122.195284 36.0369305 0.476766299
C 123.431805 36.7260212 0.41453298
C 123.44659 38.1648383 0.639878166
C 124.673696 34.5985012 0.234109835
C 124.685263 35.9888157 0.26379882
C 125.929674 36.7459608 0.324584324
C 125.915547 38.1676892 0.557139976
C 127.170442 34.5821254 0.441400777
C 127.196164 36.049849 0.385545145
C 128.444309 36.7508005 0.480828286
C 128.448516 38.1815358 0.513653741
C 129.712178 34.6021964 0.419761426
C 129.649599 36.0442676 0.442141897
C 130.915928 36.7701748 0.349908321
C 130.921483 38.2076263 0.439201427
C 132.130544 34.5917514 0.304619367
C 132.166387 36.0395153 0.316027441
C 133.422977 36.7366382 0.481329368
C 133.460424 38.1763815 0.608481394
C 134.634558 34.6049137 0.38534683
C 134.692368 36.0455451 0.588400379
C 135.962677 36.727713 0.606916868
C 135.976527 38.1487222 0.770514882
C 137.195552 34.5872316 0.247231576
C 137.171603 36.0384973 0.442760334
C 138.447468 36.7470438 0.533394602
C 138.437994 38.1990937 0.825986708
C 139.638852 34.6132901 0.307963625
C 139.712684 36.0360941 0.398824583
C 140.967318 36.7810215 0.422737669
C 140.963946 38.1725403 0.66576655
C 142.174334 34.6695933 0.299029515
C 142.200295 36.1091351 0.319099991
C 143.436813 36.7891674 0.361975972
C 143.418859 38.2608794 0.538440929
C 144.709974 34.6820617 0.427635039
C 144.712377 36.1075587 0.405639905
C 145.931663 36.8099438 0.50144808
C 145.919994 38.2282009 0.544794843
C 147.185696 34.6112743 0.578922061
C 147.183186 36.0648652 0.589650367
C 148.456263 36.782163 0.702269894
C 148.429664 38.2193132 0.711999266
C 149.665643 34.6377258 0.562249689
C 149.69487 36.0833195 0.697532815
C 150.935094 36.7924787 0.793659739
C 150.904911 38.2034063 0.926087559
C 152.174612 34.5973415 0.82457901
C 152.167694 36.0469747 0.868755651
C 153.385617 36.7715395 0.990917356
C 153.331795 38.2193081 1.15857218
C 154.664942 34.6011579 0.903734873
C 154.656602 36.0285531 0.960200685
C 155.877934 36.7544366 1.05309533
C 155.873059 38.1954071 1.11714692
C 157.198369 34.615328 0.821898033
C 157.152391 36.0682974 0.967209605
C 158.419054 36.77468 1.05164725
C 158.448512 38.2176705 1.17771529
C 159.665781 34.6105828 0.881011197
C 159.68395 36.0424348 1.00101745
C 160.930605 36.7735259 1.124749
C 160.891917 38.2593706 1.08426563
C 162.188617 34.5767385 0.966387335
C 162.188021 36.071886 1.029904
C 163.46772 36.7601509 0.93101309
C 163.453125 38.2507468 0.957252067
C 164.672448 34.5718927 0.732474988
C 164.681261 36.035834 0.813071976
C 165.928743 36.7574306 0.799237628
C 165.950629 38.175164 0.825495721
C 167.169912 34.5514428 0.560125518
C 167.142238 36.0420052 0.686096713
C 168.423864 36.7442522 0.790749951
C 168.393426 38.2325002 0.853043001
C 169.646141 34.5468918 0.665739725
C 169.594902 35.9995009 0.658936258
C 170.897189 36.7292292 0.582045231
C 170.908391 38.1638155 0.6236864
C 172.122715 34.5632763 0.675433799
C 172.093082 35.9691616 0.639252529
C 173.354041 36.7484272 0.606151955
C 173.368893 38.1785593 0.477088978
C 174.605109 34.633962 0.728413582
C 174.599621 36.071573 0.687803111
C 175.851972 36.7539441 0.622039296
C 175.876053 38.1672986 0.434769927
C 177.150805 34.5518939 0.619451134
C 177.128781 36.0476335 0.650739337
C 178.372859 36.7730909 0.541324097
C 178.356652 38.2224624 0.505707195
C 179.612092 34.5657166 0.436109846
C 179.642602 36.0022287 0.507022263
C 180.841871 36.7306458 0.388573728
C 180.811175 38.1876561 0.406252758
C 182.075063 34.5699657 0.261036136
C 182.044683 36.0036467 0.239920567
C 183.281258 36.7282141 0.103926691
C 183.294366 38.1195502 0.052330665
C 184.61395 34.5904607 0.0930413582
C 184.5369 36.0429232 0.0769954393
C 185.757597 36.7467726 -0.0215942953
C 185.784659 38.1880135 -0.143438132
C 187.030773 34.6045108 -0.169087836
C 187.084456 36.0616279 -0.153753225
C 188.316377 36.7140845 -0.315700247
C 188.259905 38.1695365 -0.383611763
C 189.516029 34.6418186 -0.567678531
C 189.545711 36.0536537 -0.467957205
C 190.783702 36.7874774 -0.499307461
C 190.730871 38.2125512 -0.463911535
C 192.043027 34.67446 -0.813597766
C 192.01716 36.0952239 -0.675662505
C 193.291321 36.7873306 -0.648255286
C 193.257724 38.2252269 -0.563535214
C 194.523303 34.5791823 -0.792165857
C 194.532533 36.0482792 -0.753905935
C 195.778658 36.7624284 -0.650187054
C 195.743138 38.2145683 -0.450256807
C 197.017626 34.5384947 -0.853988144
C 196.992652 36.0182925 -0.713879712
C 198.235195 36.7427869 -0.559879107
C 198.219654 38.1598497 -0.425152088
C 199.487712 34.558128 -0.756534173
C 199.507605 36.0067048 -0.607026046
C 200.751359 36.6989713 -0.464105177
C 200.727414 38.1187018 -0.351585215
C 202.014788 34.5394331 -0.515103323
C 202.050364 35.9852319 -0.435605173
C 203.269301 36.7440758 -0.403746932
C 203.219434 38.1951557 -0.368706459
C 204.509031 34.5634166 -0.591447398
C 204.496229 36.0165354 -0.360073134
C 205.775757 36.7358633 -0.318991228
C 205.737985 38.1684447 -0.377949999
C 207.03597 34.5623957 -0.620285163
C 206.993517 35.9815081 -0.490994371
C 208.23512 36.7082355 -0.666705546
C 208.251828 38.234753 -0.687864609
C 209.498296 34.5847895 -0.770569803
C 209.502687 36.0390623 -0.817617172
C 210.698445 36.7441127 -0.852330369
C 210.72648 38.2324319 -0.867109193
C 211.958398 34.5867535 -0.653583085
C 212.021323 36.0548827 -0.750263406
C 213.244909 36.8114571 -0.714702188
C 213.250805 38.2497055 -0.730451554
C 214.491901 34.6978658 -0.618826443
C 214.48621 36.1442801 -0.588205288
C 215.74004 36.8240968 -0.502464584
C 215.704425 38.2325111 -0.534981651
C 216.988979 34.6149071 -0.357086984
C 216.963939 36.0681718 -0.391280898
C 218.264653 36.7983038 -0.350642764
C 218.236047 38.2028489 -0.392128066
C 219.463054 34.6240197 -0.160211492
C 219.501469 36.0708092 -0.263074161
C 220.734384 36.7742407 -0.265852899
C 220.695657 38.1918501 -0.350881836
C 221.981515 34.6275678 -0.168178291
C 221.941845 36.0538138 -0.330846141
C 223.197524 36.794936 -0.447305866
C 223.206441 38.2271873 -0.441292335
C 224.446022 34.5481376 -0.181219701
C 224.406423 36.0304878 -0.332047892
C 225.641696 36.7930787 -0.16287932
C 225.711717 38.2308437 -0.130515533
C 226.944479 34.6400243 -0.0377869316
C 226.926706 36.0914542 -0.0640837274
C 228.238671 36.7672585 -0.0371771032
C 228.214186 38.2019716 -0.0192248539
C 229.497677 34.6277075 -0.066791626
C 229.51714 36.0577108 -0.0535871139
C 230.745743 36.7500307 0.0118978526
C 230.73578 38.1558969 -0.0474490333
C 231.968844 34.5893245 -0.102706395
C 231.982942 36.0036804 -0.0165724775
C 233.238733 36.7407063 -0.113563385
C 233.22192 38.1860735 -0.150857649
C 234.447308 34.6222606 0.0839253125
C 234.473676 36.0506649 -0.0318391323
C 235.690185 36.7412987 -0.0229991604
C 235.728623 38.1680457 -0.184194735
C 236.909212 34.5759599 0.373779657
C 236.933015 36.0430126 0.231417351
C 238.108382 36.7653594 0.202296284
C 238.152027 38.1718431 0.103135256
C 239.423691 34.5965049 0.436419664
C 239.357516 36.0361064 0.253548065
C 240.660203 36.749688 0.251710229
C 240.628785 38.1584561 0.258183078
C 241.886245 34.615787 0.246046707
C 241.866274 36.033398 0.235774278
C 243.187354 36.707875 0.195148702
C 243.17878 38.1778526 0.340479892
C 244.392308 34.5669583 0.0262695725
C 244.388248 35.9799416 0.08604304
C 245.670489 36.7094607 0.0328158636
C 245.670485 38.1580938 0.138450838
C 246.859821 34.5546826 -0.0588890128
C 246.890278 35.9894346 -0.0902126541
C 248.155699 36.7052523 -0.0314820079
C 248.226689 38.139657 0.00762666521
C 0.0579817946 38.8424094 -0.0656507334
C 0.0409413187 40.3159951 -0.140340451
C 1.25987535 41.060636 -0.307014551
C 1.21922215 42.477023 -0.416575717
C 2.50970346 38.8814209 -0.22485418
C 2.49203322 40.3201147 -0.358315878
C 3.72578657 40.98466 -0.38633128
C 3.71878001 42.4334408 -0.434842501
C 5.04543481 38.8315346 -0.346110153
C 5.0167069 40.2922718 -0.414947997
C 6.27405653 40.9962159 -0.435265802
C 6.24351361 42.4173946 -0.507809456
C 7.48935615 38.849463 -0.17386181
C 7.46899069 40.2666817 -0.208890235
C 8.68645241 41.0318311 -0.0506724305
C 8.71444185 42.4685166 -0.178627647
C 9.98606628 38.8394727 0.179590871
C 9.95798542 40.3136431 0.220819881
C 11.2287673 41.0934544 0.306734852
C 11.2244103 42.4887264 0.110797256
C 12.502084 38.8927884 0.395884393
C 12.5078407 40.3503926 0.39476086
C 13.7517705 41.0342823 0.396260089
C 13.7326347 42.4814246 0.327465656
C 14.972091 38.9246801 0.560471254
C 14.9439638 40.3664215 0.518020094
C 16.25511 41.0126021 0.549497314
C 16.2152397 42.4141254 0.550526521
C 17.4224784 38.8905893 0.650146426
C 17.4407702 40.3037613 0.594590756
C 18.7028459 40.9670554 0.767476461
C 18.7100206 42.4429804 0.747817686
C 19.9595963 38.8559378 0.862230401
C 19.9347986 40.2756161 0.924699407
C 21.1844186 41.0059116 1.06656824
C 21.2048607 42.4919192 0.996484042
C 22.4599295 38.88891 1.09342271
C 22.4183406 40.3267072 1.13828171
C 23.6512768 41.0537865 1.12963367
C 23.6650317 42.4554534 1.085912
C 24.9079846 38.8577691 1.25957665
C 24.8735134 40.2870017 1.32879495
C 26.0959354 40.9953145 1.23419249
C 26.1850878 42.4395536 1.16679495
C 27.347915 38.8167025 1.16704933
C 27.3646328 40.2517815 1.22509454
C 28.6505049 40.9989923 1.23014157
C 28.6992022 42.4285541 1.15092594
C 29.8630486 38.8009421 1.22472729
C 29.8592278 40.2406154 1.1760834
C 31.1390994 40.978227 1.1137277
C 31.1921555 42.4263712 0.9325667
C 32.4129883 38.79697 1.32909398
C 32.45999 40.2854281 1.22224476
C 33.6669976 40.9920428 1.14529263
C 33.7078073 42.4334944 1.0645698
C 34.92118 38.8260173 1.24579857
C 34.8978203 40.2626949 1.18504619
C 36.1196027 40.9905289 1.15398938
C 36.1662193 42.3988197 1.04786131
C 37.379785 38.8331213 1.25776858
C 37.3900213 40.2923817 1.28118218
C 38.6483006 40.998871 1.1200437
C 38.6179583 42.4647108 1.09779452
C 39.8902197 38.8709771 1.10169229
C 39.9143773 40.2755023 1.00833134
C 41.1669382 41.0259368 0.987575041
C 41.1259367 42.4770328 0.980833574
C 42.4384167 38.8464392 1.06538366
C 42.4222227 40.2676254 0.955829813
C 43.6898356 41.0228147 0.879469841
C 43.5979445 42.4891779 0.756990327
C 44.8553468 38.828098 0.93664392
C 44.907783 40.2711716 0.889266683
C 46.1336188 41.0258384 0.745427496
C 46.1495541 42.5150609 0.777030145
C 47.3817374 38.8526278 0.764545807
C 47.3801515 40.3046963 0.558051843
C 48.6404556 41.0184303 0.462486744
C 48.6360278 42.4708444 0.449164965
C 49.8534955 38.8641507 0.617684147
C 49.8715126 40.2915712 0.494461443
C 51.1310365 40.9922576 0.476679278
C 51.1472759 42.4684579 0.439070104
C 52.3277143 38.875925 0.451718911
C 52.3534048 40.3055942 0.470914109
C 53.6082294 41.0539141 0.431084758
C 53.6350671 42.4986426 0.365964524
C 54.829932 38.8262996 0.422560637
C 54.8884445 40.2566492 0.502303534
C 56.1306169 41.0192077 0.437855774
C 56.1408731 42.4738397 0.402231585
C 57.3884045 38.8824269 0.313369824
C 57.3836811 40.3128368 0.326296595
C 58.6546847 41.0142668 0.255383857
C 58.6261289 42.4819764 0.372067538
C 59.8610969 38.8689455 0.272766682
C 59.8791008 40.2894958 0.332823099
C 61.0763925 41.0211278 0.398438345
C 61.1210543 42.4642065 0.3935877
C 62.3577293 38.8333408 0.257890079
C 62.3838758 40.2822957 0.461034851
C 63.6270224 41.0423443 0.502161465
C 63.5925028 42.4861678 0.448921451
C 64.8585653 38.8487043 0.242138943
C 64.8590148 40.3071211 0.330152546
C 66.0909939 41.0113381 0.286709287
C 66.1012339 42.4119696 0.494000917
C 67.3450297 38.9047976 0.0596084208
C 67.3362434 40.3249187 0.201983164
C 68.5829576 41.0302859 0.316820196
C 68.5723258 42.4462278 0.427901143
C 69.806612 38.8996541 0.0928689878
C 69.8063873 40.3180527 0.300315236
C 71.082359 41.0241961 0.204025242
C 71.0568969 42.4979556 0.299095837
C 72.3425194 38.8339616 -0.0164362038
C 72.2795697 40.2815315 0.0644544358
C 73.568741 40.9950046 0.0555299256
C 73.5831892 42.4554694 0.151100494
C 74.8982042 38.9090014 0.00829016209
C 74.7902282 40.3276222 0.0182219315
C 76.055563 41.0676709 0.1162236
C 76.0858158 42.524432 0.225218616
C 77.3404299 38.8775079 0.0378500518
C 77.2841729 40.3145722 0.0109019433
C 78.5596434 41.0668505 0.034176174
C 78.5589913 42.5115891 0.15902148
C 79.8157029 38.8955633 0.0511646506
C 79.7981944 40.3156181 0.0488314115
C 81.042976 41.0323421 0.155086438
C 81.0711167 42.5356227 0.105371518
C 82.3282332 38.9250695 0.282504257
C 82.2957827 40.3786882 0.234011094
C 83.5660383 41.1012856 0.168500423
C 83.5751788 42.541408 0.143568929
C 84.8306353 38.9627508 0.264816445
C 84.7937746 40.4069749 0.193504042
C 86.0373286 41.0778285 0.173922465
C 86.1007856 42.5335275 0.195934951
C 87.3048533 38.8936543 0.0712628595
C 87.2720486 40.3650474 0.122302467
C 88.5196702 41.0927485 0.148452272
C 88.5720482 42.5175406 0.184185959
C 89.7705388 38.8984487 0.0305424942
C 89.7665705 40.3371543 0.066345339
C 91.0280914 41.0618063 0.101241189
C 91.0225811 42.5280577 0.0621508356
C 92.2825903 38.918896 0.00368274275
C 92.2427431 40.3851245 0.0913957393
C 93.5252536 41.1036428 0.121283936
C 93.5436717 42.5239029 0.0853659809
C 94.8012751 38.8935758 0.311118359
C 94.8150044 40.3661037 0.218598286
C 96.0087209 41.0739644 0.245731253
C 96.0455102 42.459225 0.257477425
C 97.2746188 38.903983 0.454786269
C 97.2517643 40.3593894 0.290975727
C 98.499036 41.097325 0.463621189
C 98.5025002 42.5328753 0.569132083
C 99.7606369 38.9057684 0.493906415
C 99.7621347 40.3723931 0.471093237
C 100.98139 41.0862208 0.507146151
C 100.968658 42.5118136 0.545049389
C 102.264752 38.9207234 0.534836031
C 102.238313 40.3514954 0.496626135
C 103.497089 41.0249595 0.457460613
C 103.513198 42.4495999 0.510357309
C 104.754857 38.8796644 0.481883289
C 104.779168 40.3166542 0.451148678
C 106.008808 41.0565893 0.365732616
C 105.984504 42.4723136 0.3901184
C 107.205955 38.8673762 0.456288484
C 107.235276 40.3029984 0.4757617
C 108.415681 41.041784 0.440606237
C 108.498142 42.4927879 0.39099529
C 109.752747 38.9328714 0.59876738
C 109.736897 40.3513729 0.569437862
C 110.958674 41.0917905 0.555674273
C 110.977083 42.5020902 0.585939989
C 112.21817 38.877516 0.603455699
C 112.212828 40.3368679 0.596164455
C 113.47315 41.0886964 0.58292748
C 113.464108 42.512982 0.699671601
C 114.698297 38.9346471 0.500949782
C 114.709638 40.397965 0.599114797
C 115.964647 41.0505105 0.687888773
C 115.93246 42.4795637 0.846583419
C 117.235404 38.8883844 0.469880537
C 117.201144 40.3250466 0.619743972
C 118.444704 41.040428 0.75030112
C 118.412592 42.4809816 0.829391276
C 119.733143 38.9335639 0.589594526
C 119.719472 40.3242362 0.796950708
C 120.963267 41.0559956 0.854490072
C 120.914345 42.5318565 0.977393139
C 122.195741 38.8798662 0.711982139
C 122.190145 40.3614839 0.773398714
C 123.444403 41.0477833 0.88089979
C 123.470938 42.4906831 0.989954695
C 124.683399 38.8725517 0.701486641
C 124.67592 40.3098606 0.898181168
C 125.954409 41.040766 0.979499824
C 125.929342 42.5115694 1.16155455
C 127.165624 38.8677932 0.689349592
C 127.195051 40.3478789 0.906206292
C 128.439648 41.0710565 0.892746741
C 128.480431 42.5341962 1.03794401
C 129.667912 38.8991841 0.46161179
C 129.67278 40.3593935 0.657217589
C 130.937682 41.0416979 0.704099957
C 130.986494 42.5162916 0.833088878
C 132.175195 38.8821036 0.655630043
C 132.212482 40.3214062 0.783151183
C 133.451109 41.0645124 0.881870243
C 133.416231 42.5056466 0.917283384
C 134.696402 38.8887905 0.790434553
C 134.687385 40.3290882 0.878734769
C 135.960023 41.0531788 0.983113649
C 135.923474 42.4855053 1.0530076
C 137.180638 38.8582512 0.820368664
C 137.225291 40.3332729 0.939202957
C 138.441679 41.0550199 0.940165749
C 138.435256 42.4810351 1.0569972
C 139.714885 38.9391386 0.806741304
C 139.664007 40.4032709 0.890766191
C 140.942252 41.061595 0.937373554
C 140.949293 42.4651329 1.03193809
C 142.17589 38.9516231 0.632881258
C 142.184741 40.3275868 0.771757458
C 143.379813 41.0541228 0.827724645
C 143.389675 42.4648023 0.997419791
C 144.691639 38.917997 0.60285078
C 144.678935 40.3717525 0.844311995
C 145.924785 41.1300289 0.9906528
C 145.936445 42.5319352 1.13251877
C 147.152125 38.9363749 0.683701527
C 147.148866 40.4137559 0.81704387
C 148.396082 41.0629391 0.97041561
C 148.464488 42.5510408 1.18661821
C 149.64574 38.9161405 0.836691914
C 149.681725 40.3692602 0.903288583
C 150.885327 41.0291228 1.05704141
C 150.92082 42.4800642 1.15609122
C 152.144814 38.9225529 1.09391272
C 152.144884 40.3729474 1.11072942
C 153.422375 41.0801807 1.20109981
C 153.404484 42.5617805 1.18452193
C 154.654494 38.9316083 1.22609119
C 154.679675 40.3659892 1.19547365
C 155.883369 41.0708847 1.17238473
C 155.84548 42.4996656 1.11269006
C 157.176625 38.9126572 1.1402211
C 157.146221 40.3547505 1.19414115
C 158.415543 41.1082453 1.1229836
C 158.377513 42.5570951 1.28521422
C 159.679539 38.9914175 1.12137893
C 159.624126 40.4215288 1.09419122
C 160.908522 41.1110088 1.0250796
C 160.904871 42.5638619 1.09302529
C 162.16821 38.9716871 1.05401617
C 162.153406 40.430337 0.989579507
C 163.413349 41.1483339 0.950414946
C 163.392386 42.5425936 0.97408314
C 164.701332 38.9445135 0.949845008
C 164.649872 40.3887683 0.893948574
C 165.904803 41.1091845 0.914705619
C 165.874876 42.5380941 0.97940089
C 167.165756 38.9369315 0.839583746
C 167.12235 40.3881011 0.881177662
C 168.411751 41.0789859 0.761965292
C 168.384187 42.5534777 0.799846433
C 169.655536 38.8921427 0.766507832
C 169.666711 40.3402724 0.683314673
C 170.857839 41.0338503 0.59890858
C 170.806072 42.5050978 0.607025516
C 172.1105 38.8853941 0.502986617
C 172.117381 40.3082749 0.551752369
C 173.314737 41.0845566 0.464556792
C 173.321784 42.5594964 0.486025525
C 174.631852 38.925944 0.429374104
C 174.614843 40.3647825 0.440863161
C 175.841464 41.0811003 0.412731951
C 175.841485 42.5300069 0.452304806
C 177.084737 38.8939107 0.456005887
C 177.061798 40.3499583 0.395141382
C 178.322483 41.0520365 0.360151162
C 178.35936 42.500659 0.376571923
C 179.591287 38.9171885 0.472881402
C 179.577075 40.3794222 0.429822254
C 180.799094 41.1067081 0.298738356
C 180.802343 42.5648125 0.321145998
C 182.040387 38.8901211 0.253964892
C 182.016396 40.3339744 0.269153112
C 183.275307 41.0228293 0.104061139
C 183.300813 42.4929529 0.182166784
C 184.555118 38.8963802 -0.0279279555
C 184.556904 40.3115336 0.0299293276
C 185.825224 41.0146863 -0.0534786582
C 185.757602 42.4301807 0.0683998263
C 187.010468 38.908151 -0.337281205
C 187.057226 40.3484585 -0.215217352
C 188.297923 41.0629793 -0.22883061
C 188.291186 42.4627307 -0.0373098383
C 189.49238 38.9366001 -0.436297829
C 189.528722 40.3700486 -0.423787633
C 190.791988 41.0581776 -0.319881269
C 190.796613 42.4652773 -0.144014473
C 192.041219 38.9029948 -0.476203751
C 192.03252 40.3815716 -0.462930189
C 193.294249 41.1080853 -0.406970328
C 193.263285 42.522315 -0.271223121
C 194.53472 38.9228477 -0.448102256
C 194.511611 40.3911086 -0.406525887
C 195.776636 41.045086 -0.266224055
C 195.755497 42.4810004 -0.129485239
C 197.016698 38.9025324 -0.415722123
C 197.004987 40.3470488 -0.285784636
C 198.287761 41.0299995 -0.212479305
C 198.259698 42.4710113 -0.150562913
C 199.507889 38.8122277 -0.282592462
C 199.519556 40.2782985 -0.207136194
C 200.766507 40.9980662 -0.171065362
C 200.764202 42.44181 -0.138889617
C 201.978633 38.8818506 -0.35871445
C 201.972794 40.3181176 -0.321153252
C 203.20359 41.044063 -0.372217473
C 203.261896 42.5042605 -0.290968577
C 204.504307 38.914516 -0.404035212
C 204.467302 40.3377638 -0.33225124
C 205.757476 41.0202293 -0.303651023
C 205.757786 42.4830363 -0.391066381
C 207.005985 38.8865608 -0.537840522
C 207.001351 40.3296015 -0.47358669
C 208.242233 41.0663964 -0.555684326
C 208.297283 42.5053923 -0.513703209
C 209.517387 38.9950678 -0.723454088
C 209.538345 40.4429069 -0.616578552
C 210.792206 41.1459605 -0.684979131
C 210.813181 42.5367089 -0.683676727
C 212.024253 38.9849538 -0.826925195
C 212.024921 40.447728 -0.780765045
C 213.303236 41.1475706 -0.729297512
C 213.301603 42.5608864 -0.62102836
C 214.509413 38.9186464 -0.643809092
C 214.528565 40.4085152 -0.681641993
C 215.800198 41.0978526 -0.580147324
C 215.768493 42.557127 -0.587496868
C 216.998221 38.9123841 -0.466170285
C 217.041405 40.3743979 -0.481671138
C 218.268197 41.1274313 -0.451172265
C 218.241858 42.5895646 -0.481678887
C 219.450255 38.9223087 -0.365147621
C 219.482774 40.3882034 -0.442495258
C 220.733087 41.1183941 -0.447140235
C 220.733167 42.5599199 -0.393467921
C 221.965399 38.9434833 -0.432562562
C 221.982809 40.40319 -0.43639321
C 223.244513 41.0771229 -0.338554235
C 223.282123 42.5325142 -0.418890122
C 224.438661 38.9319329 -0.239673904
C 224.475012 40.3964151 -0.27680086
C 225.745369 41.1035644 -0.234691244
C 225.744078 42.5918317 -0.224629032
C 226.939025 38.9330578 -0.080548554
C 226.940795 40.3717568 -0.16604975
C 228.173025 41.0646422 -0.0525233276
C 228.23903 42.4836181 -0.0276077775
C 229.435552 38.8919224 -0.0176452027
C 229.454914 40.3568192 -0.088587368
C 230.671114 41.130948 -0.111387108
C 230.712218 42.4934532 0.0699292579
C 231.974128 38.9460307 -0.121514805
C 231.930857 40.3397338 -0.121889761
C 233.178267 41.0842917 -0.12033784
C 233.180526 42.5441549 0.0261507602
C 234.474333 38.8763664 -0.257585683
C 234.470443 40.3599481 -0.23589886
C 235.672869 41.1276001 -0.224916828
C 235.678344 42.5960805 -0.119336913
C 236.942931 38.9154028 -0.100929864
C 236.948934 40.3638624 -0.118752781
C 238.165477 41.0575644 0.0424094898
C 238.159673 42.5125501 -0.0130609073
C 239.412617 38.8923796 0.16981532
C 239.401217 40.3357691 0.0715986312
C 240.671918 41.0333412 0.0944064326
C 240.646753 42.4826634 0.00122147786
C 241.898697 38.8611894 0.282907665
C 241.898387 40.301766 0.172272485
C 243.175879 40.9982308 0.117279328
C 243.197957 42.454773 0.0347408217
C 244.409723 38.865308 0.187056712
C 244.439753 40.2697644 0.137734796
C 245.67828 41.0717739 0.0930257068
C 245.673528 42.5248583 0.00876529134
C 246.953114 38.8716054 0.0413973932
C 246.953849 40.3290669 0.0264799241
C 248.227669 41.0559639 -0.0196472706
C 248.155212 42.4915839 -0.156075567
C 0.00756126395 43.1671305 -0.382936667
C 249.404317 44.6138284 -0.388514205
C 1.23236629 45.3568824 -0.356392407
C 1.26754357 46.7950895 -0.311192415
C 2.48511083 43.1670898 -0.470504443
C 2.48215168 44.6069868 -0.535197073
C 3.79498588 45.3173167 -0.504168339
C 3.75350847 46.7509077 -0.421546583
C 4.99331754 43.1489129 -0.486262395
C 5.00639735 44.5922109 -0.451464178
C 6.22798211 45.2884433 -0.416057935
C 6.23203757 46.7290011 -0.384229725
C 7.47324869 43.1550307 -0.332772178
C 7.45827614 44.5931577 -0.375782831
C 8.74988838 45.2777504 -0.220132355
C 8.76055912 46.7985348 -0.239275085
C 9.98460299 43.141067 -0.0144672814
C 10.0202153 44.5794276 -0.0466311194
C 11.2826689 45.3328266 -0.0157655075
C 11.2676513 46.7954589 -0.062658807
C 12.5008579 43.2071741 0.171275973
C 12.4850353 44.6309201 0.09157224
C 13.7638185 45.3681701 0.182925446
C 13.7669879 46.8070785 0.0902745416
C 15.0103223 43.2245398 0.429830194
C 14.9985841 44.6647781 0.344857239
C 16.2302404 45.361328 0.33026014
C 16.227809 46.7899703 0.254014067
C 17.4595071 43.2024207 0.647391177
C 17.4650187 44.6307411 0.558475334
C 18.6822288 45.34751 0.67234151
C 18.6953152 46.7709603 0.56378852
C 19.9614975 43.2082205 0.898981749
C 19.9205407 44.6484239 0.87774288
C 21.1949377 45.3611031 0.959341941
C 21.1735645 46.785448 0.745897199
C 22.4565635 43.187666 1.06453927
C 22.4294452 44.613616 0.951917344
C 23.711799 45.2956581 0.838350916
C 23.7091818 46.7577349 0.767990083
C 24.9525937 43.1506003 1.14363131
C 24.9144699 44.5876811 0.976869192
C 26.198197 45.2884427 0.997158082
C 26.1804308 46.7591817 0.831901565
C 27.4290145 43.1357488 1.11768314
C 27.4303419 44.5618391 1.10025884
C 28.7358535 45.2950198 1.04888468
C 28.6787652 46.7065407 0.891431535
C 29.9344425 43.157712 0.981280913
C 29.9098501 44.5446503 0.997351736
C 31.1641356 45.287893 0.814555138
C 31.1739971 46.7216454 0.710898235
C 32.4297459 43.1791601 0.90325443
C 32.457495 44.6200592 0.76800477
C 33.7023136 45.3103658 0.772269437
C 33.6900229 46.762271 0.697772608
C 34.9728291 43.1174651 0.96546429
C 34.9590549 44.5911693 0.855653647
C 36.1742545 45.2867454 0.773744233
C 36.1670519 46.8232892 0.678259536
C 37.421082 43.15523 1.03090065
C 37.4244136 44.6156623 0.905704097
C 38.6395373 45.3242343 0.85207408
C 38.6384312 46.7985066 0.742031911
C 39.895885 43.212503 1.03391615
C 39.9091484 44.6479617 0.920301466
C 41.1542694 45.3580295 0.721002454
C 41.1324183 46.7978803 0.62753935
C 42.3594409 43.1902243 0.790029781
C 42.3909511 44.6142001 0.689192881
C 43.6202416 45.3470277 0.571343195
C 43.610252 46.7447631 0.426468127
C 44.8600577 43.2331744 0.754456625
C 44.8931431 44.647933 0.620940446
C 46.1362424 45.3284874 0.567679787
C 46.0891837 46.7440381 0.545818946
C 47.3714094 43.2322784 0.667264456
C 47.3989056 44.6297269 0.660051987
C 48.636825 45.398126 0.59880933
C 48.6176607 46.8483847 0.519826515
C 49.9081867 43.205013 0.475927569
C 49.9142416 44.6689758 0.638115442
C 51.1361557 45.3860126 0.705823
C 51.1664101 46.8403783 0.602942187
C 52.3806877 43.1826432 0.463759015
C 52.3696924 44.6777889 0.586562129
C 53.6581354 45.3914678 0.59910486
C 53.6296029 46.8158204 0.615389241
C 54.9012924 43.2020854 0.460294362
C 54.9039772 44.6402141 0.530019073
C 56.1681357 45.3939364 0.53893674
C 56.169247 46.815331 0.59978819
C 57.3473367 43.1944695 0.415813992
C 57.3746246 44.6268552 0.389265619
C 58.6063922 45.3723779 0.312977898
C 58.6378899 46.8375292 0.377258762
C 59.8583018 43.2423906 0.344294183
C 59.8262496 44.6612497 0.28082909
C 61.089556 45.3414942 0.345322804
C 61.1111239 46.8093807 0.290487886
C 62.3915013 43.1827241 0.386739248
C 62.3595019 44.6248136 0.356259027
C 63.6529223 45.3607711 0.419208605
C 63.6540227 46.8365695 0.415563798
C 64.893633 43.1934514 0.517505257
C 64.8766596 44.6244332 0.441200174
C 66.1174931 45.4083678 0.464776052
C 66.1270459 46.8227717 0.382975968
C 67.3265343 43.1889419 0.446324748
C 67.3292196 44.6225751 0.410362324
C 68.5457093 45.3751548 0.359309969
C 68.6047399 46.8246341 0.29966918
C 69.8105637 43.1961429 0.407640781
C 69.778184 44.614356 0.435035625
C 71.0919001 45.3333371 0.435089907
C 71.0832958 46.7899034 0.401348856
C 72.3580883 43.1698291 0.278649805
C 72.3423106 44.6511686 0.413812571
C 73.5914052 45.3513199 0.318541607
C 73.5907536 46.7799538 0.318422953
C 74.8034627 43.2152074 0.178734254
C 74.8327569 44.6561539 0.220154093
C 76.1143684 45.3669581 0.362193986
C 76.0978958 46.7774603 0.294645126
C 77.3324253 43.211574 0.271321287
C 77.3104527 44.6565057 0.304462438
C 78.5855707 45.3547442 0.225421878
C 78.5626009 46.7750513 0.101876997
C 79.825203 43.2395154 0.208896626
C 79.8363335 44.709799 0.204520504
C 81.0867373 45.3615386 0.100386783
C 81.1283935 46.7982763 -0.0525192494
C 82.3138227 43.2520729 0.101455675
C 82.3336968 44.6739241 0.127516298
C 83.5782748 45.4134664 0.0682794246
C 83.6073614 46.8175601 -0.0857956465
C 84.8118846 43.2716253 0.190797369
C 84.8279702 44.7018943 0.170295949
C 86.0977994 45.407845 0.214323912
C 86.0728623 46.8906688 0.204330003
C 87.3170269 43.284196 0.200099325
C 87.3368464 44.6927379 0.160648216
C 88.5769589 45.4358938 0.177178579
C 88.5410114 46.8539975 0.193570416
C 89.8073026 43.253975 0.127875023
C 89.8132074 44.6746811 0.125347143
C 91.0534538 45.403939 0.237373334
C 91.048555 46.8452376 0.271994562
C 92.2894531 43.2172322 0.0831944876
C 92.3043926 44.6778519 0.191751823
C 93.5275901 45.408427 0.200272572
C 93.5298015 46.863632 0.255863408
C 94.7893585 43.2851571 0.124945735
C 94.8194857 44.6954793 0.221576767
C 96.036025 45.3976372 0.343912321
C 96.0201064 46.8423571 0.314919222
C 97.2620387 43.2710242 0.423412558
C 97.2874606 44.7119177 0.381907759
C 98.5716623 45.4338155 0.401860909
C 98.5205554 46.8373348 0.273077151
C 99.7708213 43.2359309 0.640956679
C 99.8163883 44.7163031 0.576147768
C 101.047117 45.376613 0.46129561
C 101.000031 46.7859367 0.250386252
C 102.264559 43.1746021 0.552399786
C 102.308078 44.6463771 0.512892706
C 103.555091 45.3556084 0.363205448
C 103.554299 46.7788872 0.294739497
C 104.739395 43.16679 0.455987703
C 104.776832 44.59506 0.315597502
C 106.039553 45.3410223 0.368431707
C 106.065109 46.7887141 0.290679987
C 107.230756 43.2015009 0.327259566
C 107.289338 44.6903435 0.364641255
C 108.535179 45.3833321 0.36630509
C 108.550954 46.8044092 0.254100536
C 109.744678 43.2345461 0.449656375
C 109.780354 44.679297 0.40989092
C 111.01452 45.3663185 0.412169744
C 111.055693 46.7916123 0.401697639
C 112.225838 43.2006555 0.6015714
C 112.259298 44.6654177 0.565666682
C 113.464166 45.4169192 0.617910569
C 113.524947 46.8387757 0.651889403
C 114.727261 43.1985387 0.826892751
C 114.739775 44.6513944 0.768199695
C 115.984881 45.3239399 0.791031403
C 116.000517 46.7601321 0.787738109
C 117.139371 43.1898718 0.821060291
C 117.233903 44.657943 0.844882195
C 118.490619 45.3453211 0.940011844
C 118.510834 46.7583169 0.883621092
C 119.658917 43.2033571 0.964748537
C 119.756904 44.6448149 1.03753694
C 120.975054 45.3487076 1.14999603
C 120.984504 46.8116093 1.11141562
C 122.199648 43.2117218 1.0156983
C 122.165011 44.6666817 1.11594614
C 123.432616 45.3723853 1.19270833
C 123.487318 46.8021269 1.21331877
C 124.704446 43.2283038 1.2009812
C 124.698469 44.6425204 1.29023381
C 125.965172 45.3668638 1.25214571
C 125.973143 46.8418927 1.30280097
C 127.240609 43.1827533 1.22393912
C 127.229837 44.6425935 1.29219339
C 128.465719 45.2956127 1.28658366
C 128.445887 46.7595835 1.32584881
C 129.750167 43.2001927 0.974817758
C 129.700985 44.6482966 1.15813088
C 130.936686 45.3981896 1.17529518
C 130.944139 46.8154363 1.28623303
C 132.160343 43.2429553 0.882428266
C 132.160975 44.6995632 1.02720369
C 133.396835 45.4179029 1.13912415
C 133.375873 46.8913746 1.22553343
C 134.654775 43.2162822 1.01908906
C 134.63341 44.668509 1.09036366
C 135.910762 45.4206885 1.14919274
C 135.841894 46.8529507 1.23895098
C 137.187603 43.1875613 1.09565283
C 137.203318 44.6899962 1.13179517
C 138.440147 45.3506272 1.23334445
C 138.410218 46.835021 1.24130225
C 139.686379 43.2187451 1.04020051
C 139.655855 44.6334592 1.11454331
C 140.904827 45.3743673 1.08212418
C 140.945748 46.8305419 1.03682631
C 142.162605 43.2363943 1.01885123
C 142.176922 44.6822556 1.00625185
C 143.37214 45.4371301 0.926765783
C 143.397258 46.8949884 0.91614131
C 144.652981 43.2329545 1.13037244
C 144.640151 44.6910025 1.00889944
C 145.977714 45.4297406 1.06205136
C 145.88526 46.8285387 1.04912051
C 147.213032 43.2835106 1.13689629
C 147.174693 44.6776814 1.19426048
C 148.396388 45.4446203 1.17999769
C 148.392145 46.8744755 1.1098767
C 149.705973 43.2268829 1.30914285
C 149.661522 44.6971453 1.21148525
C 150.878892 45.3920378 1.14040713
C 150.891845 46.8494697 1.22193611
C 152.138957 43.2219348 1.16218234
C 152.137007 44.6541569 1.13775914
C 153.35604 45.3795534 1.20688806
C 153.406043 46.8326203 1.23145451
C 154.675823 43.2374369 1.15251149
C 154.652353 44.6645323 1.15658084
C 155.859892 45.4000741 1.18998437
C 155.864079 46.819816 1.19657976
C 157.130738 43.2346431 1.26064478
C 157.126462 44.6735899 1.17750267
C 158.414277 45.419186 1.2468645
C 158.38381 46.8036281 1.36533942
C 159.661493 43.251391 1.22274563
C 159.68628 44.7104826 1.18335233
C 160.90283 45.3910913 1.15729257
C 160.877762 46.8556767 1.2499217
C 162.144234 43.2515762 1.01550108
C 162.180125 44.6813439 1.0272783
C 163.407381 45.4068682 1.06094088
C 163.316429 46.8393159 1.21532319
C 164.645446 43.2917294 1.03003445
C 164.625383 44.7028283 1.04490441
C 165.83135 45.4266072 1.02346098
C 165.884463 46.8174234 0.996092824
C 167.118266 43.2412007 0.940318264
C 167.092741 44.6916187 1.04686338
C 168.37847 45.3934139 0.983012107
C 168.362332 46.8430862 0.876517769
C 169.640202 43.2465191 0.77399211
C 169.611159 44.6644855 0.835176515
C 170.859839 45.3654663 0.670351843
C 170.86244 46.8587533 0.653301139
C 172.064121 43.2179314 0.554720844
C 172.100805 44.7206264 0.699462242
C 173.323901 45.431957 0.711527401
C 173.315522 46.8606408 0.65587419
C 174.606624 43.2831083 0.456850288
C 174.564424 44.7184039 0.625467846
C 175.789882 45.4304668 0.527132055
C 175.796881 46.8327969 0.536217102
C 177.106517 43.2517516 0.44885585
C 177.091317 44.6995624 0.484072475
C 178.341375 45.4258882 0.508338545
C 178.357358 46.8640118 0.535169135
C 179.568949 43.255174 0.405991833
C 179.605829 44.6788178 0.523564599
C 180.875165 45.4065941 0.47493975
C 180.854665 46.8362742 0.576611883
C 182.086257 43.2609454 0.328574804
C 182.089666 44.7052166 0.368152092
C 183.330483 45.3754511 0.47368478
C 183.385546 46.8021153 0.582532685
C 184.544409 43.16017 0.212740018
C 184.55401 44.6389297 0.35176287
C 185.788786 45.3255479 0.46315966
C 185.884994 46.7583336 0.600623791
C 187.022449 43.1577745 0.148858757
C 187.039898 44.6234104 0.304634496
C 188.282936 45.3487529 0.292281762
C 188.335541 46.7966332 0.492043119
C 189.545969 43.2230612 -0.033545695
C 189.529673 44.6275431 0.155266479
C 190.758792 45.3100947 0.233754766
C 190.813875 46.748645 0.301038107
C 192.048803 43.2294932 -0.16358881
C 191.999011 44.6171152 0.0494058753
C 193.251287 45.3754006 0.121948052
C 193.231727 46.763702 0.135678285
C 194.510735 43.2294724 -0.0928606896
C 194.527228 44.6853898 0.147836639
C 195.801433 45.3496697 0.188421083
C 195.791974 46.7700888 0.307647346
C 197.01767 43.2010694 -0.0780919721
C 197.086546 44.6622655 -0.00897877971
C 198.278785 45.3967495 -0.0226059404
C 198.308261 46.8426767 0.0209566247
C 199.540983 43.2090643 -0.0560619744
C 199.543056 44.6650009 -0.00799353426
C 200.795509 45.3689241 0.013144321
C 200.789586 46.8011217 0.0779671717
C 202.016451 43.2080818 -0.256419258
C 202.050536 44.6412253 -0.128451877
C 203.284607 45.3543075 -0.119562172
C 203.244487 46.7978725 -0.00904556146
C 204.509878 43.2279393 -0.319221981
C 204.549634 44.6598334 -0.260992991
C 205.798439 45.3451378 -0.219450709
C 205.792995 46.839467 -0.175106155
C 207.037882 43.2014008 -0.422332742
C 207.023726 44.6228374 -0.283445218
C 208.265295 45.4212546 -0.429305486
C 208.279107 46.8359296 -0.303604089
C 209.562419 43.2896557 -0.555041658
C 209.502789 44.6868019 -0.533080221
C 210.785583 45.3911775 -0.603057616
C 210.748883 46.8584883 -0.523852916
C 212.068535 43.2907385 -0.62477433
C 212.065362 44.7186681 -0.558417584
C 213.272002 45.4480162 -0.482890546
C 213.307753 46.8991489 -0.545687284
C 214.542974 43.2496498 -0.51661216
C 214.514344 44.7066287 -0.472417788
C 215.732198 45.4341809 -0.433164092
C 215.786654 46.8670125 -0.493193292
C 216.995979 43.2857285 -0.494674955
C 216.944837 44.7238857 -0.432326088
C 218.260073 45.4675906 -0.501676075
C 218.257462 46.9313558 -0.458935709
C 219.451418 43.2658914 -0.394157637
C 219.473833 44.7255209 -0.45675835
C 220.775833 45.4303009 -0.46504077
C 220.811594 46.8494949 -0.491058157
C 222.011235 43.2387505 -0.435869251
C 222.020126 44.6948046 -0.419180431
C 223.295093 45.3890108 -0.42081568
C 223.284784 46.8204639 -0.364422509
C 224.484733 43.2698075 -0.387459242
C 224.464296 44.6847015 -0.410604114
C 225.728317 45.3363823 -0.252726178
C 225.723003 46.7666528 -0.156523887
C 226.99157 43.2416012 -0.100392476
C 226.981304 44.6306316 -0.118128344
C 228.203859 45.3627689 0.0130941982
C 228.19769 46.8116651 0.00113668547
C 229.484275 43.2183509 0.0522975551
C 229.466161 44.6351253 0.0921272444
C 230.687224 45.3589487 0.167691231
C 230.690848 46.8509054 0.163166784
C 231.930181 43.1796182 0.14176365
C 231.941604 44.6404211 0.201902851
C 233.175039 45.4307843 0.196082699
C 233.167738 46.8822856 0.234029091
C 234.412315 43.2548153 -0.0394909233
C 234.436341 44.6961161 0.0167995813
C 235.683646 45.4201198 0.115221779
C 235.671035 46.8346806 0.251987805
C 236.930027 43.2618755 -0.0185099535
C 236.903897 44.7036128 0.0928049888
C 238.153218 45.3945276 0.188881417
C 238.138527 46.8098804 0.284698579
C 239.422227 43.2227016 -0.0371678118
C 239.375144 44.6388999 0.12068576
C 240.626349 45.3335598 0.185732405
C 240.661427 46.7447118 0.301089776
C 241.920312 43.1748247 0.0762185135
C 241.890458 44.6080259 0.125500798
C 243.180105 45.3397529 0.0592579204
C 243.155389 46.7745659 0.0951427099
C 244.410537 43.2490399 -0.0512710636
C 244.413751 44.661863 -0.0379176113
C 245.686505 45.3654609 -0.0854551125
C 245.664482 46.7720149 -0.0777055176
C 246.942061 43.2259068 -0.132022869
C 246.947523 44.6912432 -0.221980227
C 248.21394 45.420748 -0.292713201
C 248.147598 46.8616695 -0.146231971
C 0.0292686482 47.5426332 -0.153874198
C 0.0432635039 48.9619594 -0.0616214829
C 1.33865511 49.6742315 -0.0619200124
C 1.2922096 51.0761987 0.032603971
C 2.49556951 47.5040092 -0.327840303
C 2.54113888 48.9500856 -0.162423018
C 3.77593525 49.671032 -0.131117508
C 3.7442636 51.1094044 0.0328123461
C 4.97234941 47.4588504 -0.358212223
C 5.06369974 48.9073276 -0.214674965
C 6.27618657 49.6250291 -0.0886862358
C 6.26945149 51.0468246 -0.0122973124
C 7.5119147 47.4893982 -0.273642503
C 7.51316669 48.9463668 -0.15333212
C 8.72980163 49.6254598 -0.126102609
C 8.78612533 51.0859136 -0.105134658
C 9.99896884 47.5035586 -0.188593913
C 10.0091922 48.9225985 -0.152021812
C 11.2601281 49.6513421 -0.0177992299
C 11.2532115 51.1265587 0.0184836055
C 12.5516586 47.5069478 0.0346722152
C 12.5285875 48.9205894 0.0778983678
C 13.7423058 49.6555507 0.147793399
C 13.7306025 51.1167723 0.0980538711
C 14.9905514 47.4962965 0.177943248
C 15.0060572 48.9549604 0.258404435
C 16.285373 49.6573527 0.252056133
C 16.2335144 51.0582559 0.157130507
C 17.5042347 47.518519 0.331513716
C 17.5064174 48.9565688 0.297879247
C 18.7034732 49.6511845 0.36579608
C 18.7049483 51.0854019 0.255762467
C 19.9311273 47.4481553 0.594823978
C 19.9207401 48.9077233 0.497895988
C 21.2141572 49.5762062 0.446741109
C 21.182486 51.0635151 0.362827567
C 22.4840946 47.4612554 0.654775572
C 22.4660886 48.8789371 0.483617228
C 23.7192299 49.6299825 0.46359923
C 23.7044162 51.081239 0.374832326
C 24.9441584 47.4587173 0.699920625
C 24.9818316 48.9438786 0.60544332
C 26.2179504 49.6821711 0.630034337
C 26.1552556 51.1064232 0.633132519
C 27.4243325 47.4516091 0.786135247
C 27.4628872 48.8862717 0.636641898
C 28.6933326 49.6032028 0.599039571
C 28.6817105 51.04455 0.65571864
C 29.9310322 47.4325451 0.714387679
C 29.9087092 48.8799401 0.564276626
C 31.1670849 49.6305271 0.585060049
C 31.1150438 51.0766025 0.57136013
C 32.424543 47.4604059 0.659034865
C 32.3957996 48.9146199 0.620440474
C 33.6540801 49.6221427 0.629098144
C 33.6451661 51.064639 0.532274242
C 34.9304172 47.524043 0.706616742
C 34.8878432 48.9461954 0.672850584
C 36.2061387 49.6609898 0.603941604
C 36.1410751 51.0943564 0.527911094
C 37.4008299 47.5100947 0.707941396
C 37.4644448 48.9640344 0.647271541
C 38.6949535 49.6326044 0.555337908
C 38.6767141 51.0871874 0.431822654
C 39.90505 47.4912684 0.695455371
C 39.9220675 48.9190189 0.588301652
C 41.1313499 49.7134315 0.342668932
C 41.0929488 51.1341568 0.343974137
C 42.3972409 47.476306 0.419945815
C 42.3848201 48.9539117 0.252563413
C 43.669433 49.638441 0.310002888
C 43.6081354 51.0810612 0.237582412
C 44.8811859 47.4615736 0.415409734
C 44.9145202 48.9045811 0.279025198
C 46.1014929 49.6438936 0.268100987
C 46.1193113 51.1497503 0.134974129
C 47.3489512 47.4990777 0.553454675
C 47.3548115 48.9222149 0.495376696
C 48.5946826 49.6898725 0.437475248
C 48.5954173 51.1446346 0.346547893
C 49.9103794 47.5619336 0.512776256
C 49.8756913 48.9934702 0.486942053
C 51.0938248 49.6950166 0.516953587
C 51.1030739 51.1290163 0.368033602
C 52.3942093 47.530328 0.62996329
C 52.4066668 49.0370603 0.602727824
C 53.6418137 49.7129401 0.46835709
C 53.6599628 51.1091444 0.286202541
C 54.9160863 47.5713762 0.576453337
C 54.8480539 48.9851866 0.485160069
C 56.1184143 49.7115313 0.388194374
C 56.1231522 51.1348902 0.212970297
C 57.3801827 47.5689232 0.497596
C 57.3645197 49.0042725 0.38617172
C 58.6163703 49.7160716 0.376022718
C 58.6338812 51.1059033 0.301953754
C 59.9028421 47.5472264 0.295857437
C 59.8847055 49.0105984 0.287756547
C 61.1461723 49.7160413 0.207154011
C 61.1284447 51.1532033 0.105133901
C 62.3601476 47.5591939 0.29606624
C 62.3574556 49.0460755 0.206217442
C 63.6413682 49.7150911 0.180332925
C 63.6581095 51.1956989 0.114581892
C 64.8748751 47.560374 0.345036516
C 64.9045412 49.0032321 0.243900707
C 66.1720484 49.6607646 0.246052408
C 66.1354345 51.1454839 0.277750822
C 67.3748097 47.5901996 0.301111199
C 67.3685846 48.9969462 0.324209873
C 68.6164976 49.7330747 0.310021044
C 68.6480737 51.1560746 0.353574052
C 69.830166 47.5290798 0.393943306
C 69.8188956 48.9920128 0.35463643
C 71.0628588 49.6927785 0.32645273
C 71.1513723 51.1093663 0.380871105
C 72.3428114 47.4898507 0.294219299
C 72.3284814 48.9657347 0.25499793
C 73.5909931 49.6597565 0.22486848
C 73.6248918 51.1138554 0.187112068
C 74.8272594 47.4886436 0.334990586
C 74.8275822 48.9412723 0.227693913
C 76.0764768 49.6629845 0.174227059
C 76.0847127 51.09829 0.214895914
C 77.3130331 47.5242316 0.144353709
C 77.3506551 48.9965335 0.0532475475
C 78.5812265 49.6690285 -0.0757930049
C 78.5981949 51.112518 0.102515914
C 79.8848224 47.4634385 -0.0585310577
C 79.8508945 48.9211445 -0.182283335
C 81.0883061 49.6434732 -0.188186252
C 81.0893156 51.1030328 -0.148764119
C 82.3901645 47.4886258 -0.0988703426
C 82.3457563 48.9425491 -0.183024683
C 83.5808766 49.6540113 -0.143709817
C 83.5723443 51.0770023 -0.160313825
C 84.8328638 47.558589 -0.0415023303
C 84.8537676 48.9898417 -0.098049277
C 86.0955441 49.6866913 0.00216785017
C 86.0701167 51.155408 0.0248181523
C 87.3021127 47.5216597 0.254666957
C 87.3276835 48.9411259 0.266415227
C 88.5506279 49.6773294 0.234665863
C 88.5254901 51.1299396 0.126261175
C 89.8109187 47.5299531 0.265478163
C 89.752007 49.0123265 0.345615179
C 90.9727949 49.7355968 0.26364729
C 91.0240803 51.1341771 0.224894554
C 92.2574203 47.5785459 0.275542565
C 92.2404107 48.9867008 0.226760498
C 93.5315446 49.7231857 0.140427278
C 93.4981254 51.1763632 0.143238554
C 94.7652531 47.5427285 0.196282723
C 94.770394 48.9928556 0.0675855153
C 96.0736027 49.6752223 0.042227255
C 96.065587 51.1354142 0.0430685783
C 97.2674336 47.527444 0.254256729
C 97.3330446 48.9794106 0.190235768
C 98.5527071 49.7024671 0.0931592501
C 98.5453448 51.1275926 -0.0257336247
C 99.78445 47.5388591 0.183612906
C 99.8221178 48.9938159 0.102593963
C 101.073303 49.6612309 0.0485283507
C 101.074713 51.0944762 0.0336989832
C 102.294693 47.5050774 0.216615804
C 102.285818 48.9219811 0.11358591
C 103.531971 49.6351368 0.0707683412
C 103.487942 51.1280646 0.0311474026
C 104.800889 47.4638449 0.245712931
C 104.766667 48.9289694 0.161967075
C 106.010403 49.6673099 0.174878749
C 106.009998 51.1329061 0.128415414
C 107.304744 47.5230811 0.247763086
C 107.289114 48.9586475 0.147363102
C 108.537237 49.6698871 0.123917661
C 108.504119 51.1068281 0.0627988985
C 109.802275 47.5338919 0.254527325
C 109.798719 48.944279 0.136487305
C 111.004474 49.676422 0.181032612
C 110.985754 51.0944478 0.222513708
C 112.253715 47.5565467 0.493692394
C 112.261786 49.0071701 0.443526277
C 113.512575 49.7288871 0.487529173
C 113.561428 51.1477277 0.400897403
C 114.796942 47.5515648 0.718232682
C 114.738419 49.0021959 0.580509806
C 115.986684 49.7002092 0.677316567
C 115.988704 51.148181 0.580581792
C 117.250716 47.4909624 0.82117517
C 117.21013 48.9405958 0.810955498
C 118.425922 49.6908419 0.858261943
C 118.444601 51.157565 0.727113942
C 119.723868 47.522876 0.989377045
C 119.692722 48.9947858 1.04064188
C 120.948916 49.7320418 1.1852889
C 120.89346 51.1855913 1.19430031
C 122.250761 47.5483451 1.17651297
C 122.213252 49.0092989 1.19768111
C 123.501659 49.7248642 1.30126422
C 123.413065 51.1285851 1.3631544
C 124.722066 47.5591017 1.27170456
C 124.696054 48.9612095 1.41713068
C 125.927802 49.6739554 1.4592525
C 125.926433 51.1347227 1.51793756
C 127.203365 47.5277016 1.36647199
C 127.173963 48.9600392 1.47837377
C 128.446266 49.6671753 1.48958659
C 128.458163 51.1126053 1.48224202
C 129.694553 47.5134817 1.30758371
C 129.699352 48.9711926 1.43848386
C 130.928655 49.7049759 1.36554631
C 130.931082 51.1746729 1.40156046
C 132.157309 47.5945206 1.27081831
C 132.190684 48.9773397 1.33038798
C 133.430506 49.7097358 1.32028119
C 133.397056 51.198618 1.31651436
C 134.640786 47.5687689 1.20577018
C 134.676446 49.0041438 1.25601138
C 135.924622 49.7407311 1.25092332
C 135.944748 51.206804 1.22199083
C 137.12987 47.5792937 1.31376313
C 137.134867 49.0257288 1.28494189
C 138.414022 49.7068546 1.33967942
C 138.449474 51.1707528 1.23773562
C 139.678076 47.5072385 1.19604566
C 139.650768 48.968519 1.21637555
C 140.890513 49.7729043 1.05508696
C 140.884561 51.188589 1.01565342
C 142.150552 47.6053146 0.989806684
C 142.160013 49.0532952 1.07316982
C 143.354399 49.7863564 0.965294389
C 143.387311 51.1725866 0.890203759
C 144.642065 47.5726918 1.00679951
C 144.600663 49.0659977 0.958412504
C 145.862193 49.7501211 0.842122614
C 145.881979 51.2048393 0.80694371
C 147.140791 47.5520585 0.974506204
C 147.140924 48.9867124 0.976332844
C 148.374396 49.7453516 1.06197894
C 148.360441 51.1731717 0.970051916
C 149.627561 47.632983 1.20740516
C 149.621845 49.0107587 1.21542448
C 150.823544 49.7385188 1.22483224
C 150.864012 51.1740301 1.07224208
C 152.149839 47.5779828 1.24668876
C 152.085548 49.0332465 1.25404519
C 153.35293 49.7224729 1.21332381
C 153.369938 51.1413522 1.10894542
C 154.632998 47.5558171 1.16576173
C 154.589584 48.9928958 1.1998047
C 155.837382 49.7139474 1.31530191
C 155.852627 51.1454766 1.34352072
C 157.140436 47.5267502 1.26860983
C 157.098688 48.9550413 1.34959451
C 158.336554 49.704428 1.43976389
C 158.378208 51.1636528 1.47066877
C 159.594558 47.5170536 1.36139033
C 159.606877 49.0019914 1.45029754
C 160.895878 49.6810272 1.53500123
C 160.882964 51.1213192 1.55967225
C 162.098632 47.5337878 1.28009581
C 162.130969 48.9587624 1.32951744
C 163.405365 49.6970851 1.29717106
C 163.41765 51.140942 1.27978424
C 164.584408 47.5386494 1.13916182
C 164.624483 48.9463819 1.1356405
C 165.810792 49.7265883 0.874508757
C 165.85126 51.1683174 0.810357666
C 167.130951 47.5471556 0.765924075
C 167.081296 49.0306423 0.803033584
C 168.350139 49.7337021 0.749440328
C 168.341369 51.1836273 0.701895308
C 169.604303 47.5823553 0.791908419
C 169.594953 49.0151133 0.740674138
C 170.809882 49.7040723 0.598766569
C 170.807762 51.137728 0.536907281
C 172.101455 47.5575128 0.564289901
C 172.085667 48.9477464 0.532611124
C 173.323981 49.7070882 0.557478378
C 173.332016 51.1823118 0.502314311
C 174.550561 47.5755255 0.620322238
C 174.570646 48.9936231 0.549758325
C 175.820469 49.6910421 0.547914202
C 175.828892 51.1490165 0.562610641
C 177.079156 47.532577 0.513272717
C 177.090207 49.003811 0.563590211
C 178.351668 49.6943668 0.582855749
C 178.344108 51.1709065 0.632264237
C 179.642694 47.5798833 0.514514526
C 179.606616 49.0349556 0.598957256
C 180.87403 49.7346266 0.675958437
C 180.823808 51.2034731 0.670549904
C 182.128976 47.5267662 0.650640545
C 182.06788 48.9976354 0.587220301
C 183.343147 49.7091217 0.570703711
C 183.358475 51.1238415 0.584094786
C 184.639837 47.4848666 0.646140213
C 184.626635 48.9609781 0.563240505
C 185.857712 49.6527835 0.625752837
C 185.849911 51.0845218 0.630523962
C 187.116661 47.4983792 0.625290118
C 187.115841 48.8917785 0.69826509
C 188.333721 49.6272455 0.708541017
C 188.341026 51.1248238 0.736594966
C 189.572788 47.4884374 0.467963559
C 189.632086 48.9585297 0.547798888
C 190.846003 49.7030486 0.360339273
C 190.812069 51.1410609 0.46587927
C 192.069635 47.5038345 0.204530432
C 192.037337 48.9288683 0.279479928
C 193.331289 49.6737362 0.255167444
C 193.279842 51.1199845 0.306762733
C 194.560729 47.4931579 0.230606618
C 194.574141 48.931542 0.209331571
C 195.788653 49.6468995 0.222370146
C 195.801862 51.0743533 0.178126228
C 197.046096 47.5098885 0.154423126
C 197.040374 48.982653 0.278624946
C 198.286981 49.688076 0.162376319
C 198.251462 51.1116149 0.0528571966
C 199.528701 47.5704368 0.0259879746
C 199.523768 48.9865211 0.0801739826
C 200.784941 49.669239 0.0176003324
C 200.801131 51.0692945 -0.031607887
C 202.002438 47.5225054 0.0661818539
C 201.991396 48.9275079 0.00517270426
C 203.30013 49.6561756 -0.00289944614
C 203.272644 51.1154543 0.0404806876
C 204.516611 47.5324277 -0.0792093214
C 204.521324 48.9630182 -0.054907598
C 205.768045 49.7025052 -0.147478689
C 205.798916 51.1499213 -0.170281243
C 207.041505 47.5416228 -0.183836118
C 207.048697 48.970743 -0.10833496
C 208.275119 49.7344253 -0.137667668
C 208.291763 51.1497689 -0.164675071
C 209.481598 47.5678437 -0.381687115
C 209.525008 49.0082885 -0.228030668
C 210.797656 49.7650948 -0.260968162
C 210.779848 51.2112389 -0.211835855
C 212.02738 47.6162366 -0.478970337
C 212.051464 49.0423804 -0.449148204
C 213.287686 49.7573149 -0.49776514
C 213.268048 51.2129193 -0.340074059
C 214.520605 47.6174307 -0.588720861
C 214.541104 49.0434282 -0.507760445
C 215.766135 49.7729167 -0.329959806
C 215.775754 51.2339136 -0.227787462
C 216.986633 47.6350756 -0.483844157
C 217.023113 49.0588094 -0.33900017
C 218.269943 49.7331389 -0.18584489
C 218.234546 51.1688597 -0.108209413
C 219.566508 47.6040825 -0.420839012
C 219.49257 49.0217742 -0.245237448
C 220.769078 49.7235708 -0.282412327
C 220.719918 51.1638239 -0.173567664
C 222.07732 47.5644228 -0.30670467
C 221.990014 48.9886149 -0.219729543
C 223.248864 49.7341097 -0.192272101
C 223.181107 51.1741791 -0.0944763314
C 224.470364 47.5544441 -0.306256234
C 224.454878 48.9854569 -0.180835229
C 225.679619 49.6703069 -0.0544907931
C 225.689481 51.1213243 0.00263740562
C 226.955772 47.504753 -0.00551446447
C 226.901702 48.9379183 0.0800392521
C 228.140564 49.6800551 0.22982962
C 228.183342 51.1436493 0.278832461
C 229.42963 47.5334001 0.0512810774
C 229.409734 48.9531436 0.238135908
C 230.649179 49.65582 0.372041059
C 230.722607 51.0882865 0.383356171
C 231.921899 47.5310281 0.286238961
C 231.921572 48.9488302 0.390587535
C 233.189048 49.6520404 0.432360372
C 233.157599 51.1367936 0.38445764
C 234.451598 47.5603468 0.349591151
C 234.433644 48.9667408 0.384601673
C 235.653789 49.6964685 0.471823355
C 235.669514 51.1263362 0.479676303
C 236.941605 47.5325321 0.344918021
C 236.916872 48.9783453 0.507568475
C 238.191104 49.682806 0.5052775
C 238.17338 51.0956292 0.542035532
C 239.425249 47.4967266 0.37581185
C 239.418181 48.9554307 0.386161889
C 240.683953 49.634581 0.309208328
C 240.706613 51.1080649 0.295592999
C 241.913869 47.4790118 0.279884512
C 241.950684 48.9551776 0.296007172
C 243.224122 49.6360026 0.209960455
C 243.231072 51.1071816 0.173650486
C 244.392651 47.5073629 -0.00392591866
C 244.435373 48.9292899 -0.00759967373
C 245.674112 49.6281822 0.0151137493
C 245.666111 51.0835944 0.144995678
C 246.902988 47.5141843 -0.121319803
C 246.950734 48.9526091 -0.0903764182
C 248.200506 49.6630198 -0.00259550935
C 248.201009 51.1038265 0.138120413
C 0.0514554873 51.8294375 0.14088386
C 0.0663696159 53.2580197 0.212190196
C 1.28457552 53.9799875 0.24477135
C 1.2886763 55.4549 0.286627384
C 2.52802729 51.8364843 0.0958631371
C 2.49961726 53.2892363 0.248102679
C 3.79802396 53.9924079 0.21237089
C 3.81052056 55.4184254 0.25976436
C 5.03098668 51.8212742 0.0511769444
C 5.03547632 53.2598377 0.133187158
C 6.28181941 53.9362633 -0.0484228018
C 6.26590118 55.4057113 -0.099187889
C 7.52435611 51.7927911 -0.070578861
C 7.53303051 53.2189509 -0.122379152
C 8.77014599 53.9227507 -0.192540516
C 8.7982017 55.3853365 -0.250549758
C 10.0499598 51.8334297 -0.0808758885
C 10.0264064 53.2371304 -0.0611557469
C 11.2500112 54.0084731 -0.0116237873
C 11.2453976 55.4632861 -0.0812912101
C 12.5145036 51.8560467 0.0280189772
C 12.5030166 53.2678348 0.0119180267
C 13.7510332 54.0110687 0.0414702399
C 13.7575991 55.4887947 -0.0269518669
C 14.9906638 51.8038045 0.13370144
C 15.008266 53.2637006 0.0346630827
C 16.2499359 54.0138326 0.0377170712
C 16.239776 55.4421513 -0.104646052
C 17.4575443 51.8124662 0.195438118
C 17.5532875 53.255391 0.091833201
C 18.7427587 53.9584332 0.035963263
C 18.7193112 55.4054856 -0.107507574
C 19.9762095 51.8335363 0.319926338
C 20.0012588 53.2622915 0.173150838
C 21.2092346 53.9890786 0.0799044501
C 21.2625124 55.4825334 0.00868969016
C 22.4476662 51.7923706 0.262527781
C 22.4793223 53.2618186 0.245564091
C 23.7145175 53.9659243 0.388466586
C 23.6879353 55.4073599 0.306978389
C 24.9094724 51.7911139 0.54254019
C 24.9492925 53.2733053 0.531388394
C 26.211558 54.0037288 0.512508839
C 26.2347726 55.4342328 0.3967192
C 27.4349587 51.8129371 0.698824826
C 27.433248 53.2320004 0.55830249
C 28.709758 53.9787255 0.549209677
C 28.7057492 55.4261057 0.461858586
C 29.9142268 51.8195125 0.629605134
C 29.8896995 53.219928 0.532876754
C 31.1532902 53.9526622 0.412598633
C 31.2056048 55.4203421 0.388232353
C 32.4483076 51.7690733 0.522264421
C 32.3845751 53.2036156 0.43384381
C 33.6208088 53.9275873 0.217924411
C 33.6550637 55.4136772 0.144239267
C 34.9170887 51.8137 0.464616058
C 34.885711 53.2760841 0.261607082
C 36.0982686 53.953746 0.180472438
C 36.1458504 55.3575885 0.0410221066
C 37.3942854 51.8070514 0.456488988
C 37.3882773 53.3041936 0.276122419
C 38.6025367 54.025475 0.259742745
C 38.6670205 55.4776564 0.13899667
C 39.8731425 51.858942 0.38676197
C 39.8259589 53.3090728 0.32919628
C 41.105828 53.9866414 0.171375255
C 41.1550529 55.4662295 0.0506096868
C 42.3869619 51.8115096 0.269804063
C 42.365139 53.2360212 0.158558773
C 43.6267551 53.9262145 -0.0143967641
C 43.6185223 55.397712 -0.169225747
C 44.8614402 51.8030429 0.0890661719
C 44.8860355 53.2220733 -0.124833296
C 46.1796732 53.9759995 -0.204689635
C 46.1312266 55.4620893 -0.301264095
C 47.3322156 51.8609958 0.163406679
C 47.4200159 53.2679097 -0.0468482968
C 48.6814407 53.9657186 0.0625316067
C 48.6448178 55.4158262 -0.044164228
C 49.8946071 51.8319642 0.29552403
C 49.8962484 53.251904 0.158028409
C 51.1290781 53.947874 0.0722034533
C 51.1420415 55.423097 -0.0318003843
C 52.3987007 51.806688 0.258601434
C 52.3855543 53.2895998 0.0791488538
C 53.6617997 53.9552321 -0.0188529596
C 53.6211342 55.422475 -0.0177080897
C 54.8778058 51.8377545 0.112382234
C 54.856278 53.2637621 -0.0610860271
C 56.1324594 54.0361968 -0.0665198375
C 56.1136312 55.4464489 -0.132205796
C 57.3517231 51.8295993 0.1900775
C 57.3662582 53.2936943 -0.0185703464
C 58.6421442 54.0268653 -0.155832162
C 58.6097309 55.4755843 -0.202617615
C 59.876281 51.8936429 0.168505168
C 59.8903772 53.3288562 -0.0538636902
C 61.1501948 53.9883098 -0.0197207282
C 61.1119596 55.4414902 -0.09970743
C 62.3969162 51.8738262 0.0679575278
C 62.4254877 53.3143058 0.00998449166
C 63.6054351 54.046758 -0.0140344168
C 63.5925179 55.5001862 0.00784086122
C 64.9073776 51.8505289 0.111827114
C 64.8605495 53.3084232 0.0170527111
C 66.0826271 54.0287954 0.109826026
C 66.0386881 55.5001669 0.184981558
C 67.3765432 51.8370698 0.281421758
C 67.3672453 53.3103659 0.270998034
C 68.6066917 54.0233899 0.381210643
C 68.5999922 55.4820534 0.323478903
C 69.9094541 51.8359203 0.467715137
C 69.8683448 53.298672 0.506450771
C 71.1489585 53.9898743 0.552542562
C 71.0937197 55.4702552 0.541574477
C 72.3864337 51.8353225 0.283185059
C 72.3926337 53.2619125 0.395845585
C 73.6268316 54.0086492 0.551808455
C 73.6031503 55.431335 0.633939169
C 74.869656 51.8441363 0.251223625
C 74.833588 53.2982645 0.414486694
C 76.0804125 54.0206482 0.431208112
C 76.0262677 55.4685041 0.504383198
C 77.3429642 51.8088111 0.30642013
C 77.3249436 53.2918447 0.408069458
C 78.5694723 53.9819299 0.263664384
C 78.5827353 55.4396448 0.343293862
C 79.8426805 51.816008 0.0252693634
C 79.8143776 53.2215333 0.123811377
C 81.0792555 53.9513091 0.136970061
C 81.0727236 55.3787265 0.334844466
C 82.3236327 51.8266028 -0.132576247
C 82.3457943 53.2439002 0.0100860771
C 83.5772011 54.0016988 0.0938960068
C 83.6008729 55.4227503 0.283025112
C 84.7984464 51.8514417 -0.0305847482
C 84.8563754 53.2680049 0.0235127939
C 86.0859768 53.9878732 0.113666385
C 86.1068954 55.4428856 0.17633925
C 87.3164407 51.8515296 0.0881630475
C 87.3586973 53.2755885 0.058054579
C 88.5670218 54.0110891 0.0137302548
C 88.5779058 55.4709419 0.00843997096
C 89.7625501 51.8795001 0.152095904
C 89.7707955 53.3082521 0.0469658827
C 91.0439751 54.0195133 0.117555319
C 91.0718085 55.4834998 0.100073056
C 92.2458861 51.8445648 0.213036697
C 92.2877945 53.2938782 0.141826099
C 93.493647 54.0384292 0.157083294
C 93.4865458 55.4636062 0.284008137
C 94.8267643 51.8678796 0.1277127
C 94.7881674 53.3576671 0.131383514
C 96.0392694 54.009328 0.19936078
C 96.0169625 55.4767721 0.341778551
C 97.2811123 51.8289146 -0.0255916462
C 97.270541 53.2664935 0.137898328
C 98.5016153 53.9832492 0.204799165
C 98.5878752 55.4190964 0.262162322
C 99.7896825 51.81334 0.0485910817
C 99.7801926 53.2333242 0.0853433849
C 101.070219 53.9686541 0.126757965
C 101.060517 55.3908132 0.184231693
C 102.292212 51.8311472 -0.0268770441
C 102.291669 53.2409105 0.0559957174
C 103.533616 54.0020201 0.0709314869
C 103.512902 55.4238538 0.0452843958
C 104.750842 51.8521176 0.092362067
C 104.755646 53.2743123 0.0443619964
C 106.044152 54.0311193 0.069165343
C 106.02921 55.4940055 0.0128342376
C 107.274685 51.8481503 0.0628229489
C 107.265151 53.2858294 0.0517388433
C 108.504364 54.0213489 -0.0185926498
C 108.483069 55.470367 0.00721147086
C 109.772339 51.8448239 0.114449535
C 109.721387 53.2952134 0.0271007847
C 110.993729 54.0178085 0.164417937
C 110.996079 55.4914824 0.139192382
C 112.290911 51.8215043 0.306238279
C 112.223961 53.3080166 0.259377694
C 113.502847 54.0264405 0.304251993
C 113.520914 55.4529232 0.293479284
C 114.741471 51.8846347 0.522413363
C 114.745261 53.3306091 0.432342026
C 116.008011 54.0623226 0.423796523
C 116.022594 55.5085897 0.434801047
C 117.238888 51.8906085 0.555783597
C 117.230158 53.3383274 0.521700141
C 118.514567 54.0528851 0.633534983
C 118.467738 55.5190119 0.761685406
C 119.67005 51.8556018 0.910539039
C 119.716332 53.3019302 0.794450018
C 120.925205 54.0307606 0.965405606
C 120.972018 55.4604026 0.999128773
C 122.156417 51.8729014 1.2416235
C 122.169975 53.3223155 1.15458334
C 123.454411 53.9842033 1.19874343
C 123.44787 55.4199213 1.17329118
C 124.645891 51.8826689 1.47300678
C 124.665851 53.2834547 1.31891214
C 125.893571 53.9766333 1.39415491
C 125.918082 55.469729 1.29102571
C 127.193663 51.8372935 1.44999139
C 127.146498 53.2701717 1.42077884
C 128.354617 53.9962524 1.54764141
C 128.436578 55.4520661 1.52669153
C 129.677458 51.8823695 1.47675839
C 129.646316 53.2993214 1.4745305
C 130.908396 54.021479 1.38395828
C 130.978034 55.4826715 1.36326727
C 132.122542 51.9099595 1.41864154
C 132.200151 53.2949328 1.39167676
C 133.426389 54.0467554 1.36342766
C 133.459762 55.5468592 1.30387765
C 134.648787 51.9251873 1.25759714
C 134.69031 53.3724554 1.22339115
C 135.937736 54.0487171 1.0954224
C 135.939949 55.5425755 0.963216431
C 137.24565 51.9001235 1.22768824
C 137.243583 53.3425817 1.20529175
C 138.464214 54.0646477 1.18659989
C 138.433226 55.480616 1.050534
C 139.667732 51.9125183 1.09532734
C 139.71501 53.3537379 1.0681422
C 140.929134 54.0723575 0.911432036
C 140.932935 55.5506772 0.913949268
C 142.124115 51.9120379 0.959026969
C 142.182172 53.3842601 0.877804947
C 143.441893 54.1109968 0.780801033
C 143.434191 55.541392 0.829934028
C 144.653185 51.9178405 0.784330134
C 144.702993 53.4199509 0.74286071
C 145.950857 54.0868461 0.74639645
C 145.98596 55.5454509 0.638068343
C 147.119106 51.8929346 0.868324807
C 147.172722 53.3700146 0.836945023
C 148.399177 54.07663 0.74333703
C 148.454519 55.5188752 0.592160664
C 149.640761 51.9135639 0.946792311
C 149.636264 53.3608999 0.830304612
C 150.862304 54.0771441 0.806288812
C 150.938455 55.5375861 0.75802897
C 152.142635 51.8713075 1.08873473
C 152.181523 53.3554459 0.943716025
C 153.430298 54.0426016 1.10061344
C 153.405623 55.4798856 0.986562551
C 154.619932 51.9144524 1.30647045
C 154.616307 53.3279803 1.32846451
C 155.896893 54.0242154 1.43678882
C 155.890756 55.4510633 1.35064565
C 157.136024 51.8992271 1.41741085
C 157.163024 53.3582668 1.45525618
C 158.423056 54.0154022 1.45231993
C 158.407998 55.481652 1.36789516
C 159.660789 51.8651866 1.58211266
C 159.688289 53.3128891 1.48766366
C 160.916445 54.012693 1.34989742
C 160.84501 55.4476029 1.27954728
C 162.153209 51.8518756 1.38624891
C 162.152106 53.3241926 1.35040246
C 163.365735 54.0457692 1.27060949
C 163.385971 55.5254327 1.12368278
C 164.565016 51.8888297 0.979747709
C 164.592254 53.2973096 1.01367285
C 165.805176 53.9937454 0.849670684
C 165.889129 55.4611305 0.798287822
C 167.106933 51.8532348 0.723471729
C 167.08851 53.3218911 0.697466631
C 168.340789 54.0730793 0.608159453
C 168.384369 55.4823353 0.606890809
C 169.593194 51.8464891 0.587448839
C 169.57042 53.3341505 0.49479855
C 170.834827 54.0109046 0.376724116
C 170.822194 55.4717404 0.300949968
C 172.087137 51.8670034 0.444098971
C 172.081949 53.3071488 0.425338463
C 173.336947 54.0224056 0.408786815
C 173.301977 55.4957035 0.228305044
C 174.589036 51.8880622 0.540556756
C 174.569343 53.3554299 0.487252529
C 175.848704 54.0512652 0.408758785
C 175.830211 55.4683264 0.310627724
C 177.087091 51.8563858 0.516726245
C 177.045952 53.3198065 0.471393039
C 178.345214 54.0523584 0.520749322
C 178.317098 55.5183649 0.450044371
C 179.572439 51.8782651 0.682070753
C 179.628894 53.3330962 0.612539878
C 180.901091 53.9877637 0.531792595
C 180.878656 55.4249614 0.54240687
C 182.099643 51.8486515 0.54081738
C 182.122956 53.2757271 0.543861204
C 183.370804 54.0427369 0.688752157
C 183.303228 55.4857839 0.768124923
C 184.608401 51.8230317 0.677494361
C 184.601185 53.3477536 0.716362258
C 185.862343 54.0305862 0.80027083
C 185.840124 55.4849343 0.905129355
C 187.063146 51.8765583 0.663073559
C 187.103451 53.3030009 0.740296019
C 188.324658 54.0127359 0.607253107
C 188.323849 55.436046 0.651961424
C 189.587596 51.816263 0.592881551
C 189.56914 53.2681322 0.48471879
C 190.829134 53.9960185 0.464318401
C 190.784738 55.4379866 0.43830719
C 192.08182 51.8564037 0.322649158
C 192.056479 53.2706558 0.421840233
C 193.292694 54.0170644 0.350930953
C 193.271034 55.4205302 0.511847154
C 194.54552 51.8433688 0.299520015
C 194.539368 53.284679 0.328579384
C 195.752131 53.9809807 0.350874979
C 195.815996 55.4665152 0.440896351
C 196.99507 51.8534296 0.109676526
C 196.994996 53.2915141 0.203088396
C 198.259121 53.9691075 0.121660985
C 198.270592 55.4333236 0.214276991
C 199.506394 51.7949048 -0.0364138104
C 199.504531 53.2481735 0.0505361654
C 200.808152 53.9447514 0.1358472
C 200.766982 55.3926462 0.187656963
C 202.045773 51.8161087 0.0574281888
C 201.990969 53.228148 0.103858856
C 203.21719 53.9319362 0.057597724
C 203.214953 55.395376 0.102770633
C 204.547763 51.829835 -0.14865298
C 204.527282 53.2801984 -0.110800534
C 205.751197 53.99429 -0.131580577
C 205.709884 55.4440608 -0.0209627742
C 207.072078 51.8288257 -0.198580561
C 207.02068 53.299516 -0.266966993
C 208.255643 54.0642931 -0.244202303
C 208.26522 55.4659703 -0.0832695201
C 209.513998 51.9517142 -0.166276654
C 209.502649 53.3385472 -0.183735172
C 210.751359 54.0718911 -0.25750699
C 210.76018 55.4879084 -0.222561095
C 212.023976 51.9302126 -0.269001522
C 211.968034 53.357708 -0.340818806
C 213.275615 54.0435869 -0.243962452
C 213.254645 55.4748786 -0.156964595
C 214.508623 51.9049484 -0.206803198
C 214.55504 53.3204584 -0.155583472
C 215.767365 54.0449066 -0.0738749643
C 215.770724 55.4827677 -0.124881414
C 217.021547 51.9385826 -0.0557494227
C 217.048646 53.3726099 -0.112413025
C 218.232153 54.105763 -0.136704762
C 218.236177 55.5348868 -0.0706231499
C 219.496555 51.8894577 -0.1618967
C 219.451201 53.361054 -0.150638201
C 220.726593 54.0374986 -0.102459906
C 220.751973 55.4724373 -0.112822256
C 221.947229 51.8577201 -0.108311859
C 221.96804 53.3039604 -0.106227651
C 223.194642 54.0271178 -0.0702791631
C 223.21326 55.4835267 -0.00480703795
C 224.439923 51.9002144 -0.0585626109
C 224.443481 53.3345402 -0.0734844669
C 225.70518 54.0646743 0.132472989
C 225.671687 55.4733652 0.242384842
C 226.961698 51.8912941 0.206936224
C 226.929524 53.351013 0.277465312
C 228.211163 54.0375544 0.487003723
C 228.214309 55.4569067 0.586294147
C 229.442086 51.8710772 0.358569171
C 229.463978 53.2943559 0.46776835
C 230.676764 53.9862226 0.56406147
C 230.689906 55.4627863 0.72689375
C 231.909024 51.8236274 0.451778219
C 231.907034 53.2837272 0.528892961
C 233.173343 54.020299 0.57167613
C 233.172608 55.46088 0.559182395
C 234.428478 51.7969108 0.533995895
C 234.439943 53.2791314 0.611847829
C 235.664377 54.0096039 0.604066032
C 235.699191 55.4254626 0.588801872
C 236.945934 51.8505398 0.48667365
C 236.93765 53.3087558 0.489346763
C 238.21138 53.9718727 0.432342265
C 238.226719 55.403485 0.367504484
C 239.431454 51.8028984 0.430729212
C 239.436083 53.2534205 0.454506104
C 240.683953 53.9780515 0.42285255
C 240.738257 55.4203943 0.370435248
C 241.965974 51.8115379 0.185443384
C 241.954712 53.2428358 0.309575033
C 243.194335 53.982331 0.291418379
C 243.204226 55.4220552 0.290231811
C 244.416947 51.8344147 0.187055328
C 244.395429 53.2425595 0.285235898
C 245.70797 53.9518218 0.276964064
C 245.732891 55.3851536 0.324805613
C 246.923448 51.77372 0.16158347
C 246.947233 53.2293186 0.318713184
C 248.221415 54.0100309 0.334522087
C 248.258711 55.4482974 0.329153971
C 0.0644595314 56.1682027 0.349153532
C 0.0463912365 57.609581 0.301400542
C 1.31821454 58.3062553 0.251696095
C 1.31298916 59.7150995 0.225290403
C 2.49968542 56.1558241 0.256457848
C 2.53230954 57.5875877 0.267145472
C 3.83447529 58.3034344 0.139049858
C 3.80994094 59.7325331 0.0494388156
C 5.04721391 56.1132655 0.0847769886
C 5.03219909 57.5773163 0.0256891634
C 6.2471803 58.2744161 -0.187706384
C 6.29991085 59.734138 -0.192615647
C 7.54050018 56.1029795 -0.19936676
C 7.48635203 57.5150564 -0.261558159
C 8.74868614 58.3047745 -0.309639272
C 8.7838229 59.7410975 -0.282626413
C 9.98588376 56.1410744 -0.201607804
C 10.042572 57.5755815 -0.234230937
C 11.288855 58.2646252 -0.208457018
C 11.2937841 59.7129415 -0.129330529
C 12.5262666 56.1633878 -0.100337427
C 12.5459337 57.6048928 -0.155731888
C 13.7581293 58.3165702 -0.156429762
C 13.7488563 59.7754247 -0.259245653
C 15.0134678 56.1769244 -0.03027972
C 15.0397147 57.6102264 -0.092683564
C 16.2566115 58.3048164 -0.22799502
C 16.2448538 59.7551744 -0.318450416
C 17.4925964 56.1459068 -0.247835059
C 17.5007752 57.5937863 -0.364999834
C 18.7495106 58.3049146 -0.381838047
C 18.7478945 59.7660204 -0.39270816
C 19.9955744 56.1104914 -0.190507495
C 19.9806648 57.544454 -0.3187677
C 21.2519151 58.3042923 -0.0754760953
C 21.2103178 59.7619015 -0.105955538
C 22.4875045 56.1385338 0.174859957
C 22.4464952 57.5785904 0.0817752888
C 23.6883729 58.2830978 0.175875347
C 23.6994337 59.7453234 0.10415681
C 24.9656554 56.1491599 0.364056445
C 24.933075 57.6045577 0.37552968
C 26.2064703 58.320108 0.477014688
C 26.1807149 59.7723836 0.275636752
C 27.4608223 56.1690969 0.403384109
C 27.486155 57.6043183 0.422475733
C 28.71908 58.3612652 0.379727352
C 28.7210717 59.7865079 0.363881083
C 29.9851054 56.1788772 0.474674235
C 29.9687096 57.6127899 0.390874232
C 31.2152248 58.3365814 0.341762621
C 31.1932095 59.7698635 0.298322308
C 32.4365883 56.0871319 0.335192995
C 32.4525053 57.5588512 0.308470875
C 33.6927362 58.299104 0.100012237
C 33.7065533 59.7659879 0.226821806
C 34.8859349 56.0870805 -0.104496216
C 34.8812615 57.5156183 -0.105780309
C 36.1574985 58.3291405 -0.0248151615
C 36.1438152 59.7821594 0.00135058234
C 37.3978485 56.113243 0.0609940721
C 37.4158972 57.5739748 0.0168519561
C 38.6816923 58.301709 -0.0200638329
C 38.6504662 59.7511464 -0.05152284
C 39.9165776 56.1921889 0.0681568237
C 39.9183298 57.6060907 -0.0638189035
C 41.1936776 58.3063956 -0.223443608
C 41.2026787 59.7495957 -0.178247683
C 42.4070245 56.1495453 -0.167831171
C 42.4054069 57.5730962 -0.264659348
C 43.6295197 58.328182 -0.343880051
C 43.6627494 59.7789808 -0.252273292
C 44.8742816 56.1215256 -0.256308423
C 44.8882614 57.5859435 -0.392093847
C 46.1106808 58.3536767 -0.387402102
C 46.1375138 59.7760046 -0.353528571
C 47.3961978 56.1278148 -0.228439034
C 47.4220378 57.6341634 -0.374353318
C 48.6737855 58.3052036 -0.272555765
C 48.6367245 59.7672191 -0.271066781
C 49.8994381 56.1519983 -0.0694349257
C 49.9079911 57.6290144 -0.186898667
C 51.1605278 58.2951043 -0.288190128
C 51.1483814 59.7232645 -0.34269122
C 52.385672 56.1366137 -0.109114596
C 52.3677794 57.5813915 -0.265053109
C 53.6312902 58.2832169 -0.345178211
C 53.6724887 59.7694685 -0.403025976
C 54.841766 56.1648916 -0.0490796346
C 54.8576539 57.6044388 -0.14205207
C 56.1190281 58.3109804 -0.134525252
C 56.1585836 59.7205175 -0.184408
C 57.3499053 56.1690079 -0.204483607
C 57.3771772 57.6072853 -0.175221594
C 58.6414581 58.3213262 -0.223781746
C 58.6145217 59.7432239 -0.100421921
C 59.8759781 56.1371498 -0.17203722
C 59.8907111 57.5795545 -0.0966172978
C 61.128273 58.3353674 0.029958215
C 61.1110671 59.7751661 0.121899962
C 62.369198 56.2727366 0.00586157828
C 62.4120325 57.6496315 0.112020882
C 63.6144516 58.4008474 0.178740888
C 63.6705858 59.819228 0.259328053
C 64.8417852 56.2615536 0.0529335725
C 64.867487 57.689298 0.132962295
C 66.1143192 58.364182 0.290377484
C 66.0992089 59.7884943 0.360938257
C 67.3269622 56.1884977 0.343950062
C 67.3301062 57.608122 0.40930922
C 68.5706337 58.3275454 0.498647607
C 68.5967931 59.7752721 0.563266781
C 69.8356583 56.188683 0.433408982
C 69.8900497 57.6171788 0.533158929
C 71.080455 58.356446 0.731812515
C 71.0760868 59.8000186 0.705373156
C 72.3269917 56.1774423 0.715994003
C 72.3344027 57.5617013 0.810319222
C 73.6002589 58.3125006 0.709466904
C 73.5523005 59.7234196 0.642961373
C 74.8425997 56.1653448 0.667449749
C 74.8736495 57.5879097 0.724967301
C 76.0746831 58.3086919 0.626946008
C 76.0507944 59.7925501 0.635871514
C 77.3031783 56.1550497 0.389362902
C 77.3106582 57.6096998 0.4858654
C 78.6086668 58.3269318 0.483084184
C 78.5911848 59.7910774 0.488577261
C 79.832417 56.1369905 0.428968354
C 79.8418559 57.5833999 0.457817432
C 81.0630688 58.2884078 0.464378883
C 81.0427997 59.7197296 0.408885641
C 82.3298922 56.1524466 0.367046077
C 82.3117243 57.5763362 0.396883007
C 83.5937958 58.2998047 0.35532225
C 83.5919179 59.7546352 0.338772938
C 84.849126 56.1269373 0.292900465
C 84.8623601 57.5797727 0.387436901
C 86.0818014 58.2927708 0.367261662
C 86.0419555 59.7036669 0.445820004
C 87.3171914 56.1927491 0.110669545
C 87.3213638 57.587193 0.196268391
C 88.582678 58.3114928 0.213854717
C 88.5905499 59.7327507 0.371916875
C 89.8410341 56.1765741 0.0185529228
C 89.837446 57.6210495 0.13160125
C 91.1215453 58.3167374 0.122714361
C 91.0665318 59.7555197 0.189563106
C 92.2882169 56.2078588 0.236886158
C 92.3027392 57.6226478 0.152331904
C 93.5418087 58.3572729 0.305738108
C 93.5430038 59.7963644 0.281618358
C 94.7664141 56.1467946 0.313378738
C 94.7772148 57.5955916 0.35301849
C 96.0515427 58.3192856 0.445415359
C 96.0224359 59.7533418 0.301917958
C 97.3181677 56.1533586 0.39031242
C 97.3242099 57.5483271 0.50068707
C 98.6037748 58.2831467 0.371998249
C 98.5717934 59.7013094 0.308648669
C 99.8211754 56.1215395 0.291758304
C 99.8442353 57.5649914 0.355524139
C 101.077237 58.3202067 0.267964252
C 101.058037 59.7901342 0.154199603
C 102.273322 56.1521039 0.143048189
C 102.306898 57.5872778 0.211970529
C 103.535458 58.3271413 0.120652865
C 103.57032 59.7511759 0.0660319373
C 104.774894 56.1490404 -0.0364613973
C 104.75521 57.5888049 0.0689962574
C 105.997331 58.290904 0.110181403
C 106.074973 59.7192029 0.0374047802
C 107.24404 56.1836037 0.0417915181
C 107.275658 57.6091272 0.182386304
C 108.567809 58.3256552 0.161456895
C 108.560433 59.7491599 0.107956549
C 109.720078 56.1954974 0.0672639402
C 109.795963 57.6163579 0.0707558702
C 111.0352 58.3474093 0.0344068913
C 111.003498 59.7663117 0.0645861249
C 112.233733 56.2123105 0.156375156
C 112.276018 57.6242509 0.106869088
C 113.537919 58.3350077 0.208247447
C 113.523102 59.7474082 0.109047788
C 114.731077 56.1625774 0.358961791
C 114.749926 57.5959816 0.354343946
C 115.955987 58.3163056 0.413519236
C 115.987398 59.7644604 0.312354059
C 117.236224 56.2078044 0.580369316
C 117.204791 57.6669421 0.597031642
C 118.473592 58.3953853 0.727161886
C 118.552876 59.8185958 0.613265537
C 119.724663 56.2256435 0.962425089
C 119.709039 57.6103813 0.95075951
C 120.943806 58.3410546 1.13359651
C 121.004695 59.7959517 1.02805029
C 122.198351 56.1883413 1.09651449
C 122.24336 57.6019549 1.20979735
C 123.443476 58.3675316 1.23363542
C 123.461708 59.839456 1.23381311
C 124.658215 56.2194262 1.24828246
C 124.682985 57.6514967 1.32744855
C 125.928902 58.3565021 1.45324041
C 125.930444 59.8060276 1.42195705
C 127.19802 56.2158401 1.51766249
C 127.182737 57.6479744 1.45174679
C 128.475107 58.3405435 1.4693469
C 128.46505 59.7867173 1.51264237
C 129.715563 56.2400489 1.46575267
C 129.71404 57.6601788 1.40248203
C 130.942369 58.4313632 1.36120173
C 130.927973 59.8729151 1.40241924
C 132.21888 56.2261889 1.28622636
C 132.210619 57.6440128 1.29564944
C 133.400929 58.4052376 1.22272251
C 133.418361 59.8403122 1.23140516
C 134.693539 56.2676554 1.19609086
C 134.703082 57.6893518 1.17274481
C 135.951599 58.4164049 1.02753613
C 135.946302 59.8568137 1.01217774
C 137.200537 56.2320211 0.93875311
C 137.219666 57.6965562 0.974470815
C 138.439269 58.4015377 0.845226056
C 138.442673 59.8438583 0.830254437
C 139.656588 56.2720907 0.983246555
C 139.686445 57.7050277 0.83895525
C 140.931436 58.3845195 0.811229531
C 140.945705 59.8282606 0.787001429
C 142.179558 56.2642563 0.847705284
C 142.178422 57.6680916 0.837884152
C 143.408727 58.4092933 0.659917153
C 143.365982 59.8578491 0.686355875
C 144.662574 56.2490275 0.596237412
C 144.65238 57.6700887 0.535696815
C 145.945173 58.3738037 0.499361198
C 145.917581 59.8116024 0.610319137
C 147.202391 56.2545485 0.581496722
C 147.228827 57.71364 0.448305376
C 148.42874 58.4103932 0.499471975
C 148.380567 59.8296533 0.590142911
C 149.700005 56.2346287 0.576614178
C 149.646596 57.6752505 0.468854784
C 150.907773 58.3861995 0.649337557
C 150.899961 59.8461685 0.82249051
C 152.186346 56.2066959 0.835683096
C 152.138388 57.6962293 0.80165114
C 153.412879 58.4008547 0.926260176
C 153.378008 59.8224489 0.983343737
C 154.623274 56.1918376 1.05827925
C 154.660223 57.6390574 1.10088279
C 155.885768 58.3923916 1.28516969
C 155.891561 59.814047 1.2226866
C 157.172123 56.2039362 1.37320102
C 157.118583 57.6242278 1.35288739
C 158.386413 58.3577921 1.39677748
C 158.362719 59.8060077 1.31164898
C 159.639477 56.2055309 1.31496779
C 159.627811 57.6526001 1.33879154
C 160.913583 58.3658009 1.24827468
C 160.898475 59.7566246 1.10063844
C 162.113933 56.1949811 1.19091291
C 162.135197 57.642027 1.29506167
C 163.383929 58.3717869 1.10110177
C 163.38064 59.7959684 0.920681396
C 164.640032 56.1840102 0.919368566
C 164.650489 57.60972 0.956107318
C 165.903576 58.3715933 0.758117908
C 165.860588 59.8225521 0.630147556
C 167.12251 56.1998466 0.673947753
C 167.146191 57.6653156 0.633944184
C 168.378007 58.3295643 0.611308884
C 168.346563 59.7716143 0.452428765
C 169.57244 56.2362235 0.486924389
C 169.624848 57.6768417 0.575859456
C 170.874605 58.3744624 0.496231777
C 170.811709 59.7798802 0.364290873
C 172.049088 56.186425 0.207670278
C 172.064135 57.6558454 0.347548082
C 173.323192 58.3635986 0.236752332
C 173.298633 59.8056166 0.174153767
C 174.570043 56.2006227 0.186537154
C 174.556431 57.660339 0.190495552
C 175.81707 58.3119537 0.172774417
C 175.817777 59.7919629 0.0783997383
C 177.070785 56.2130329 0.332414902
C 177.06164 57.6066179 0.21071094
C 178.30988 58.3171368 0.182841983
C 178.326816 59.744537 0.0599079398
C 179.578918 56.1600841 0.42708195
C 179.555024 57.6200053 0.277144298
C 180.793058 58.3482669 0.36994085
C 180.824392 59.7635008 0.266497082
C 182.042256 56.1845912 0.580828213
C 182.047268 57.6124351 0.544770297
C 183.315827 58.3180619 0.664097438
C 183.382031 59.7601919 0.533733625
C 184.55315 56.162213 0.890229432
C 184.585878 57.6123231 0.775741562
C 185.856036 58.3204133 0.628313655
C 185.867184 59.7654018 0.6307257
C 187.088568 56.2076485 0.806708327
C 187.091799 57.6058674 0.655575406
C 188.311668 58.3496951 0.563986194
C 188.341754 59.804067 0.566828213
C 189.555228 56.1756646 0.47013258
C 189.527762 57.6536841 0.490668092
C 190.827401 58.2996645 0.405620853
C 190.843363 59.738972 0.375073159
C 192.045523 56.1490875 0.478859044
C 192.081703 57.577146 0.440578489
C 193.294741 58.2928988 0.375783818
C 193.315338 59.694209 0.354370976
C 194.535389 56.1876598 0.537778948
C 194.550591 57.6221363 0.447003733
C 195.806403 58.3216035 0.391854893
C 195.80982 59.7368602 0.397155145
C 197.042941 56.2084593 0.354770885
C 197.070451 57.6017868 0.429277675
C 198.294847 58.3195051 0.439117227
C 198.380028 59.7092285 0.354469834
C 199.512265 56.1358641 0.244666909
C 199.533727 57.594694 0.315148049
C 200.758895 58.2777945 0.260336872
C 200.780275 59.7224841 0.226843645
C 202.036393 56.124075 0.133225593
C 201.980579 57.5674044 0.128169826
C 203.240334 58.2889553 0.153307846
C 203.312686 59.720752 0.294049629
C 204.466784 56.0977563 0.0554777072
C 204.462195 57.541176 0.102652883
C 205.721127 58.3015428 0.107501189
C 205.701709 59.7592293 0.211276301
C 207.009534 56.1392757 -0.00440471295
C 206.985671 57.564663 0.0623879645
C 208.27363 58.2770001 0.0881421688
C 208.244583 59.7012681 0.150992547
C 209.515399 56.1805303 -0.0693278813
C 209.50766 57.5920172 0.0211365343
C 210.752196 58.2870107 0.0139694524
C 210.757702 59.7448791 0.0818387583
C 212.050178 56.1926538 -0.175183742
C 212.036318 57.6337899 -0.124039942
C 213.257358 58.4314485 -0.149117262
C 213.229478 59.8333014 -0.104952772
C 214.522213 56.1541935 -0.177738463
C 214.503589 57.6294626 -0.189761179
C 215.742835 58.3867115 -0.146618114
C 215.712495 59.8435413 -0.0539858643
C 216.971142 56.2312043 -0.145541344
C 217.020441 57.6430199 -0.137677026
C 218.252114 58.3628844 -0.0950451941
C 218.231597 59.8270751 -0.129830526
C 219.479403 56.2196258 -0.103499776
C 219.501844 57.6213266 -0.0895833878
C 220.768339 58.3513229 -0.0988812861
C 220.720136 59.7730472 -0.143556699
C 221.988414 56.2099396 -0.109446461
C 222.036326 57.6360417 -0.00631119675
C 223.232647 58.3624473 0.146239612
C 223.185628 59.807351 0.154626827
C 224.436913 56.1995464 0.146734618
C 224.476215 57.6336383 0.238052646
C 225.737826 58.3557448 0.399207848
C 225.698913 59.7856067 0.285823009
C 226.939911 56.2080087 0.435141579
C 227.001965 57.664892 0.503005324
C 228.236336 58.3747456 0.451043006
C 228.23843 59.8046609 0.338438573
C 229.417394 56.2070184 0.684000887
C 229.42788 57.6291054 0.535355834
C 230.672364 58.3828249 0.561471179
C 230.694551 59.8127809 0.421764446
C 231.92599 56.164891 0.649399788
C 231.911734 57.6073435 0.521248886
C 233.137613 58.314433 0.346836833
C 233.16545 59.7763571 0.310356109
C 234.468071 56.1603487 0.513678007
C 234.390156 57.5765393 0.391676559
C 235.683388 58.2972711 0.288433318
C 235.680437 59.7424545 0.255443746
C 236.957139 56.0933659 0.403028034
C 236.906788 57.5805732 0.303049143
C 238.168118 58.3186049 0.241377344
C 238.20013 59.7613028 0.269196405
C 239.457284 56.1041228 0.311602778
C 239.434112 57.5381048 0.256363165
C 240.693945 58.2958696 0.190903687
C 240.697862 59.7651467 0.156217079
C 241.997534 56.1315283 0.287089712
C 241.942834 57.5834528 0.25454126
C 243.195345 58.2712387 0.261662119
C 243.208895 59.7357589 0.202198337
C 244.507484 56.1192423 0.327900297
C 244.444764 57.5735255 0.267085432
C 245.69259 58.3257523 0.335490745
C 245.693876 59.7552721 0.259828796
C 246.996364 56.1384069 0.273463475
C 246.964994 57.5881303 0.31726895
C 248.231168 58.3116331 0.298216641
C 248.177497 59.728335 0.296722279
C 0.0996249057 60.4539687 0.256081296
C 0.0441470824 61.8727482 0.0481155699
C 1.32265081 62.5571902 -0.0827825726
C 1.27735374 64.0384125 -0.15701417
C 2.5949118 60.442595 0.137589782
C 2.56712571 61.8599878 -0.000323779467
C 3.77766956 62.5892299 -0.0377107402
C 3.76675833 64.0538318 -0.116135294
C 5.05667746 60.4244912 -0.156794908
C 5.02496499 61.8973673 -0.145661207
C 6.27859577 62.5897213 -0.184881986
C 6.25485147 64.0685617 -0.179784391
C 7.54091473 60.4180978 -0.185969187
C 7.4829818 61.8685821 -0.15221638
C 8.73882938 62.6334379 -0.152967225
C 8.71730266 64.0819292 -0.166264581
C 10.03201 60.4739192 -0.111677515
C 9.99065983 61.8953749 -0.0999729476
C 11.2832578 62.6037803 -0.147322587
C 11.2158824 64.0750565 -0.232699588
C 12.5004259 60.4817186 -0.222409281
C 12.5016561 61.8779069 -0.203601708
C 13.7402047 62.6406438 -0.224287465
C 13.7579201 64.0654586 -0.24410873
C 15.0143053 60.4864754 -0.305355012
C 15.0072206 61.9512979 -0.306505623
C 16.2761593 62.6380253 -0.423427159
C 16.2674546 64.1224903 -0.434198139
C 17.4922573 60.4874721 -0.418553239
C 17.5135454 61.933766 -0.386324759
C 18.7436226 62.6105133 -0.380035548
C 18.7310347 64.0840054 -0.449632204
C 19.988732 60.4693135 -0.200911885
C 19.9800542 61.939693 -0.244561806
C 21.2014878 62.6040198 -0.223860729
C 21.2165218 64.0564811 -0.31095568
C 22.4628087 60.4660857 -0.0310849285
C 22.4469976 61.9024992 -0.0947254922
C 23.6766222 62.6267373 -0.194144022
C 23.6806357 64.0451897 -0.333499058
C 24.9223592 60.4987111 0.110504634
C 24.9437972 61.9267793 -0.0847439389
C 26.1843025 62.6534632 -0.148262991
C 26.1901349 64.0766513 -0.257556856
C 27.4498076 60.5223132 0.209748023
C 27.4289071 61.940853 -0.0351301166
C 28.643529 62.6563868 0.108512855
C 28.6386564 64.0612809 0.0537319473
C 29.9680124 60.5046239 0.23909508
C 29.9145805 61.9212403 0.133511988
C 31.180996 62.6353398 0.138105136
C 31.1281025 64.1187582 0.0615469887
C 32.4453693 60.4521071 0.344459908
C 32.438141 61.9065933 0.180509963
C 33.6760733 62.6338996 0.041041025
C 33.6507387 64.0937554 0.0596364312
C 34.9088026 60.4993703 0.084975967
C 34.9589806 61.9576467 0.0281237121
C 36.1904384 62.6477914 0.0710904138
C 36.1574313 64.0908727 0.0951245393
C 37.3941216 60.4589298 -0.0151923788
C 37.4118812 61.9070726 0.0607628824
C 38.6205872 62.6193269 -0.000884929941
C 38.6308895 64.0805701 0.0778289547
C 39.9254998 60.4531287 -0.142189841
C 39.8712419 61.9083848 -0.117949259
C 41.1477944 62.6589466 -0.0585135325
C 41.1605676 64.1334873 0.0157635546
C 42.4316771 60.4952485 -0.182534892
C 42.4363252 61.8977466 -0.153304625
C 43.634923 62.6983741 -0.275716195
C 43.6118212 64.1486375 -0.0754686386
C 44.8763272 60.5398623 -0.314939223
C 44.8925823 61.9909894 -0.256314976
C 46.1076893 62.6482758 -0.182398396
C 46.1100506 64.1228035 -0.130004344
C 47.4221755 60.505236 -0.35603063
C 47.4143157 61.9434859 -0.247707104
C 48.6468237 62.6551665 -0.200038949
C 48.6500762 64.1152402 -0.171295725
C 49.8939004 60.4655511 -0.269551995
C 49.8883276 61.9025676 -0.233070003
C 51.1450952 62.6314598 -0.143853132
C 51.1067713 64.0805885 -0.202904737
C 52.3887097 60.4768249 -0.322902015
C 52.4186083 61.9325861 -0.128609269
C 53.644097 62.674278 -0.0894674268
C 53.6189174 64.0785894 -0.255910309
C 54.9294766 60.4833903 -0.206251173
C 54.9189492 61.9049258 -0.0916885203
C 56.1544999 62.6206136 -0.0105325183
C 56.1593252 64.1021573 -0.167287241
C 57.3871638 60.422809 -0.0148653856
C 57.3948447 61.8972124 0.00277633033
C 58.6175394 62.6300957 -0.0642047663
C 58.6155895 64.0595377 -0.12491384
C 59.8795601 60.4962872 0.0944736263
C 59.873577 61.9274175 0.0464908162
C 61.1201085 62.6317074 0.116481231
C 61.0823963 64.0551969 0.0369267874
C 62.3629141 60.5008924 0.195832795
C 62.3731945 61.9187159 0.156941477
C 63.6074027 62.6448287 0.167372451
C 63.5765746 64.051355 0.127126952
C 64.887564 60.5162082 0.318196121
C 64.907067 61.9584808 0.227621812
C 66.0864636 62.6962992 0.290475194
C 66.0839352 64.1747169 0.29195201
C 67.3408005 60.5314534 0.456679215
C 67.3678989 61.9659914 0.413596151
C 68.6034548 62.7292096 0.45196038
C 68.6076739 64.1231911 0.312371135
C 69.8228677 60.5390423 0.608001793
C 69.8792342 61.9901537 0.558426369
C 71.1463527 62.7058529 0.475507069
C 71.136282 64.1560748 0.338004103
C 72.3089502 60.5340873 0.623372675
C 72.3684537 61.9788594 0.565485963
C 73.5964712 62.7055435 0.450236738
C 73.614736 64.1517857 0.31112603
C 74.8068276 60.5397572 0.584038446
C 74.7971484 61.973785 0.450284996
C 76.0608068 62.6859018 0.403039834
C 76.1026844 64.1149509 0.368227836
C 77.3458983 60.4682887 0.454646623
C 77.3021569 61.8848091 0.413233944
C 78.564659 62.5777278 0.380248101
C 78.5757063 64.0508224 0.394502704
C 79.8607041 60.4765296 0.416065094
C 79.7858118 61.8885267 0.379588367
C 81.0489276 62.5922057 0.355284564
C 81.0641931 64.0735097 0.331782609
C 82.3124582 60.469154 0.355349316
C 82.3323696 61.9104462 0.330824278
C 83.5890346 62.6288651 0.300310578
C 83.5988299 64.0730895 0.27639891
C 84.8234806 60.4795521 0.378487741
C 84.8514923 61.8904256 0.344691054
C 86.0813335 62.6572688 0.253712619
C 86.0714994 64.0978145 0.16787591
C 87.3023361 60.4610055 0.37305379
C 87.3342678 61.9803236 0.246500759
C 88.5245126 62.6756857 0.13706394
C 88.5734376 64.1257338 0.0267164357
C 89.8117388 60.4682653 0.319210416
C 89.8060796 61.9126804 0.108243901
C 91.0354371 62.6476832 0.0431602221
C 91.0726153 64.0988413 -0.00346225398
C 92.3123279 60.5261344 0.256683182
C 92.2672828 61.9436907 0.128034417
C 93.5140852 62.6712078 0.140403577
C 93.4910516 64.0837901 0.129986842
C 94.785186 60.4916568 0.305432048
C 94.7575595 61.90833 0.265514967
C 95.995981 62.6013794 0.268343978
C 96.0127787 64.042748 0.221438485
C 97.2857441 60.4441909 0.314804708
C 97.2716425 61.9089043 0.215204715
C 98.5051858 62.6260821 0.0907132444
C 98.5045033 64.0810394 0.0991275284
C 99.8090069 60.5121471 0.169061316
C 99.7820816 61.8742231 -0.0377924859
C 100.999928 62.6291217 -0.179240084
C 100.960935 64.0764122 -0.154444623
C 102.302682 60.4858451 0.0404221852
C 102.252721 61.936138 -0.124775277
C 103.528164 62.6455849 -0.112545963
C 103.531552 64.0741628 -0.172100513
C 104.796509 60.4608017 -0.0118338529
C 104.776575 61.8953143 -0.0411759148
C 106.11079 62.5370164 -0.131910926
C 106.043975 64.0001653 -0.215459832
C 107.303029 60.4205365 0.0563960104
C 107.336147 61.8265714 -0.0771916577
C 108.533427 62.6147997 -0.106156677
C 108.53744 64.0203554 -0.147962667
C 109.775808 60.4623889 0.000886424814
C 109.777264 61.897184 -0.0626225563
C 110.985921 62.5860212 -0.0233166053
C 110.989841 64.0639483 0.0197272573
C 112.264642 60.4675148 0.0206056435
C 112.28694 61.899477 0.0403806646
C 113.501267 62.6393772 0.173700939
C 113.494717 64.055037 0.180576669
C 114.741781 60.4552636 0.207743181
C 114.749312 61.930554 0.186489399
C 116.054203 62.6522343 0.231382129
C 116.058026 64.1122158 0.282154372
C 117.288778 60.4954754 0.377872086
C 117.264484 61.9237515 0.335086421
C 118.488592 62.6647644 0.525658645
C 118.491663 64.0601698 0.490530055
C 119.709273 60.5436524 0.82259587
C 119.717223 61.9699976 0.733255615
C 120.947158 62.704312 0.8315705
C 120.983856 64.1502825 0.701444047
C 122.200194 60.5254508 1.12915983
C 122.21202 61.9776759 1.01495961
C 123.457312 62.7143923 1.10290656
C 123.479236 64.1499885 1.02404912
C 124.694733 60.5895584 1.35053743
C 124.700008 62.0078173 1.26342053
C 125.954785 62.7664616 1.34374833
C 125.966892 64.1932119 1.19000977
C 127.201479 60.5245454 1.49580834
C 127.17005 62.0402184 1.46894084
C 128.513172 62.7693328 1.42100101
C 128.487105 64.2007932 1.28575645
C 129.690019 60.5825388 1.4938348
C 129.748214 62.0145856 1.37768035
C 130.98135 62.6843661 1.29054094
C 130.964484 64.1186125 1.26168146
C 132.158059 60.5458764 1.31036554
C 132.212831 62.0003216 1.25760498
C 133.478551 62.7095519 1.25463467
C 133.482718 64.2025574 1.18707588
C 134.653496 60.5621571 1.13420137
C 134.681389 62.0241333 1.18364006
C 135.959287 62.7156032 1.08133204
C 135.954825 64.1251458 1.02331148
C 137.19938 60.5839199 0.893958468
C 137.191194 62.0287936 0.963857178
C 138.448983 62.7186241 0.922875392
C 138.488509 64.1474049 0.994108853
C 139.664122 60.5378107 0.810855123
C 139.699666 61.9644535 0.85599642
C 140.981135 62.7016881 0.830922129
C 140.941874 64.1342305 0.908398377
C 142.171943 60.5606773 0.733869597
C 142.175575 61.9761239 0.743129409
C 143.430105 62.7450818 0.668739964
C 143.409578 64.1879995 0.743347771
C 144.619118 60.5016843 0.566281337
C 144.672862 61.9705267 0.642730772
C 145.910577 62.675922 0.669498173
C 145.913274 64.1318193 0.795795658
C 147.147217 60.5778308 0.662277616
C 147.173395 61.9862228 0.72216692
C 148.40702 62.7135934 0.784086053
C 148.444016 64.1973348 0.910751206
C 149.677407 60.523778 0.735518168
C 149.64917 61.9904226 0.73144357
C 150.907632 62.6939753 0.887343556
C 150.921031 64.1446772 0.911871063
C 152.127009 60.5743125 0.990076251
C 152.160353 62.0211858 0.898663083
C 153.407278 62.7346873 1.02109378
C 153.380121 64.1683656 0.991284791
C 154.628845 60.5512328 1.12369922
C 154.648301 62.0036079 1.0944606
C 155.877521 62.7233264 1.05472998
C 155.832015 64.1719821 1.03718594
C 157.140264 60.5107261 1.23513443
C 157.169107 61.9718575 1.07612045
C 158.37904 62.6931709 0.929963386
C 158.321733 64.1374011 0.813511764
C 159.657365 60.5188749 1.06744915
C 159.625295 61.9716628 0.938800631
C 160.843439 62.6644465 0.844091245
C 160.83741 64.1575179 0.824318905
C 162.121349 60.4995533 0.900823319
C 162.137687 61.9563727 0.743274379
C 163.352672 62.6713649 0.608435333
C 163.308483 64.0954788 0.599481305
C 164.593448 60.504511 0.638986572
C 164.614666 61.9678382 0.529952199
C 165.836128 62.685857 0.479420263
C 165.838021 64.1583598 0.404775028
C 167.087028 60.5288182 0.487032403
C 167.114562 61.9409842 0.456638946
C 168.302777 62.7103101 0.320112974
C 168.315599 64.1197841 0.394636231
C 169.583537 60.524023 0.358027746
C 169.579037 61.958712 0.265487954
C 170.817399 62.6833945 0.22758163
C 170.867483 64.100545 0.359532825
C 172.055858 60.5118916 0.298129261
C 172.098784 61.9128543 0.161329434
C 173.310233 62.6506143 0.0148125426
C 173.319712 64.0867185 0.0823439478
C 174.497608 60.4904291 0.0145809739
C 174.539809 61.9309907 0.0109921415
C 175.792715 62.6311441 0.0434961453
C 175.847618 64.0578041 0.0993739014
C 177.078789 60.5035361 0.044475745
C 177.07126 61.9281832 0.0715438129
C 178.313405 62.6546129 0.120055769
C 178.340042 64.0982732 0.17589079
C 179.564508 60.4972806 0.116248781
C 179.589542 61.9325608 0.14776381
C 180.814772 62.6828516 0.312997683
C 180.813117 64.0877372 0.450340685
C 182.099986 60.4698968 0.357494505
C 182.065806 61.9327083 0.31171041
C 183.334326 62.6338092 0.468721932
C 183.338107 64.0451275 0.627338389
C 184.60942 60.472468 0.628280403
C 184.583301 61.9239864 0.592488086
C 185.828012 62.5859861 0.723094138
C 185.847508 64.0256211 0.74650525
C 187.10312 60.4654586 0.587552873
C 187.076165 61.890633 0.645476373
C 188.312583 62.65019 0.558133456
C 188.346227 64.0175229 0.590675203
C 189.62401 60.4958871 0.485310078
C 189.546208 61.9126512 0.512311254
C 190.814548 62.6039155 0.37703363
C 190.776466 64.0429556 0.405838977
C 192.046641 60.4368374 0.363985318
C 192.038435 61.8799548 0.379263752
C 193.262556 62.595922 0.276996981
C 193.259623 64.0426989 0.284669788
C 194.559056 60.445268 0.390826038
C 194.547028 61.8890226 0.329397898
C 195.819137 62.6104301 0.310370229
C 195.801098 64.0332977 0.336663972
C 197.055182 60.4680527 0.331209556
C 197.030542 61.9023024 0.341811957
C 198.265369 62.6330565 0.369363114
C 198.254541 64.0508761 0.435623452
C 199.565455 60.4578143 0.293381513
C 199.51538 61.8687296 0.320849474
C 200.744483 62.5873318 0.367230085
C 200.732348 64.0225594 0.641779901
C 202.043826 60.4288462 0.300235467
C 202.044027 61.8713715 0.387800841
C 203.248796 62.5886662 0.510456407
C 203.251136 64.010921 0.739739198
C 204.493493 60.4578965 0.327537141
C 204.508666 61.8967269 0.448332118
C 205.728535 62.6498308 0.535966961
C 205.746266 64.0920307 0.737139814
C 206.935191 60.4429044 0.247388273
C 206.999141 61.9311113 0.369524435
C 208.261275 62.6252539 0.377030047
C 208.222482 64.0672443 0.487200689
C 209.535454 60.4403258 0.171337721
C 209.514433 61.893431 0.266746965
C 210.733771 62.6779515 0.255659036
C 210.753511 64.0651374 0.338511066
C 211.966153 60.5134582 0.080344506
C 211.961258 61.9147707 0.140956691
C 213.199838 62.6311171 0.0997138892
C 213.218929 64.0842307 0.13196402
C 214.450718 60.5461884 -0.0819955284
C 214.466301 61.9645852 0.035911837
C 215.717205 62.7257219 -0.0496327499
C 215.718549 64.1496626 0.108890365
C 216.95337 60.5639846 -0.0558539108
C 216.968257 61.965739 -0.11173218
C 218.214934 62.7128886 -0.168402113
C 218.206635 64.1666796 -0.0620541423
C 219.476988 60.5118184 -0.199439047
C 219.447037 61.9508555 -0.227198219
C 220.702042 62.6722017 -0.164937497
C 220.71301 64.1571831 -0.147688064
C 221.955303 60.5152679 -0.043160619
C 221.950971 61.9756619 -0.0624012376
C 223.195651 62.6939195 -0.079999145
C 223.232568 64.1458023 0.0295327003
C 224.447489 60.4930643 0.193307605
C 224.40592 61.9352773 0.143298694
C 225.703346 62.6689071 0.165242685
C 225.721457 64.102254 0.156790388
C 226.97828 60.5081317 0.331975113
C 226.94721 61.933559 0.261401069
C 228.200345 62.6582261 0.221828485
C 228.18333 64.0800624 0.267606758
C 229.488246 60.5369366 0.300909713
C 229.519916 61.9902905 0.202847236
C 230.731584 62.6342952 0.193508547
C 230.692295 64.0433115 0.133014745
C 231.971839 60.515244 0.294649546
C 232.029503 61.9391947 0.165051568
C 233.227329 62.6630212 0.152839741
C 233.162399 64.114083 0.153439376
C 234.43327 60.5490543 0.324735528
C 234.47537 61.9686183 0.15349266
C 235.715226 62.6180416 0.0600336719
C 235.703396 64.0838854 -0.0140042321
C 236.912503 60.4692386 0.212298148
C 236.941001 61.8519934 0.0409242421
C 238.215247 62.5751937 0.010066575
C 238.236901 64.0370261 -0.107100243
C 239.452217 60.4644333 0.2200875
C 239.478501 61.8670874 0.0797068787
C 240.75096 62.6040866 -0.017423366
C 240.706936 64.050147 -0.125038547
C 241.949431 60.4479849 0.113621796
C 242.02706 61.88325 0.0708218296
C 243.232557 62.6586759 0.0348767769
C 243.163319 64.0443369 -0.0583809732
C 244.472733 60.4745894 0.165548128
C 244.473502 61.9225443 0.0520698999
C 245.7269 62.6068182 -0.0399809025
C 245.649296 64.0466443 -0.213828853
C 246.958809 60.5003888 0.258946101
C 246.964725 61.8896046 0.0830267864
C 248.236491 62.5868684 -0.0354927815
C 248.186439 64.0284692 -0.175741928
C 0.0137995865 64.7380573 -0.209238108
C 0.0174717349 66.1978067 -0.356029821
C 1.23184561 66.9143537 -0.370014232
C 1.28582293 68.3748048 -0.384381636
C 2.55082238 64.7510321 -0.203144473
C 2.47470922 66.1866405 -0.282148492
C 3.7646704 66.9281131 -0.193393026
C 3.76219605 68.3682743 -0.353144465
C 5.01238863 64.774006 -0.145872548
C 4.99395546 66.2550529 -0.145058542
C 6.24265086 66.9776712 -0.222932898
C 6.23144457 68.4150915 -0.40570698
C 7.48850869 64.8018577 -0.214810754
C 7.49856152 66.2512499 -0.212387515
C 8.74698555 66.9920449 -0.15760344
C 8.74127355 68.3760774 -0.299794793
C 9.97565875 64.7714472 -0.235990868
C 9.94660614 66.2313263 -0.334184961
C 11.2189538 66.9170694 -0.31816463
C 11.2131956 68.4213902 -0.352765368
C 12.4953435 64.7977615 -0.277316114
C 12.4797912 66.2145837 -0.247535981
C 13.745719 66.9158211 -0.259053442
C 13.7044267 68.3387039 -0.328739534
C 14.9949173 64.8115099 -0.340980521
C 14.9742026 66.2501025 -0.340024805
C 16.2331042 66.9455312 -0.347282676
C 16.2195238 68.3506285 -0.450391825
C 17.4856726 64.8501775 -0.473822382
C 17.508946 66.2290338 -0.44781488
C 18.7530386 66.9639079 -0.391664848
C 18.7461297 68.3744456 -0.406583941
C 19.9679664 64.7714238 -0.386665313
C 19.9794466 66.2333938 -0.453710735
C 21.2389787 66.979378 -0.584721614
C 21.2401849 68.433373 -0.503544454
C 22.4786785 64.8159742 -0.401212007
C 22.4877026 66.2410971 -0.471022075
C 23.6909838 66.9945221 -0.347590838
C 23.6654511 68.4126085 -0.33823653
C 24.9503732 64.7462745 -0.336766517
C 24.8993854 66.2230231 -0.350057591
C 26.1643204 66.9498562 -0.232624373
C 26.1906271 68.3995957 -0.0959030613
C 27.4130095 64.7477239 -0.127847207
C 27.411495 66.216842 -0.125226788
C 28.695497 66.9269752 0.0344927808
C 28.6686105 68.3916842 0.168300595
C 29.8662196 64.7872372 0.018131178
C 29.9128448 66.2107774 0.104651144
C 31.1763609 66.9363613 0.258978213
C 31.1513703 68.3729419 0.436493187
C 32.3932769 64.8312569 0.103894374
C 32.3849734 66.2531956 0.260387123
C 33.6506447 67.0006613 0.330802795
C 33.6913702 68.4261355 0.414872909
C 34.8926747 64.8053917 0.156988643
C 34.9081003 66.2357196 0.317813874
C 36.158477 66.9417361 0.450303511
C 36.1742809 68.4101609 0.462148328
C 37.4290956 64.8044886 0.188727847
C 37.4216615 66.2689061 0.371511267
C 38.6652616 67.0120592 0.408787969
C 38.6979872 68.4078911 0.601392405
C 39.8755646 64.8467559 0.0961076928
C 39.8851429 66.2947301 0.325886532
C 41.1486403 66.9608414 0.403717816
C 41.1345372 68.4121925 0.555014851
C 42.3629015 64.8543536 0.0181430847
C 42.3901162 66.2863917 0.266017196
C 43.6670331 67.0362565 0.24254044
C 43.6016377 68.4868963 0.418282189
C 44.8528283 64.8505104 -0.0729367553
C 44.8959949 66.3337006 0.0238010141
C 46.1589742 67.0314961 0.0299882251
C 46.1076265 68.4542797 0.188450927
C 47.4014246 64.8442305 -0.175817555
C 47.433629 66.3476046 -0.138873926
C 48.6365303 67.0285399 -0.0843740776
C 48.6480901 68.4977975 -0.015549076
C 49.8990341 64.8136228 -0.185130888
C 49.9101906 66.2675857 -0.105654645
C 51.169345 66.9625154 -0.0226903321
C 51.1288468 68.4006962 0.0677954932
C 52.3574605 64.8270292 -0.255432623
C 52.423072 66.2614906 -0.0890192832
C 53.6691149 66.9963296 -0.0478641773
C 53.6223861 68.4490203 0.0289372329
C 54.8658996 64.8056694 -0.178777634
C 54.8809392 66.2598881 -0.112613906
C 56.1354763 66.9899791 -0.111824162
C 56.1193521 68.3756716 0.0513112374
C 57.3884619 64.8160561 -0.209936541
C 57.3645073 66.2371808 -0.156300396
C 58.6222522 66.9191105 -0.0682758548
C 58.5824008 68.3854159 0.052046961
C 59.8569932 64.787075 -0.0292636408
C 59.8417964 66.2234884 -0.0128898621
C 61.0868038 66.9401364 0.0456004566
C 61.0766153 68.4055956 0.0921608266
C 62.3267347 64.7724095 0.0259154974
C 62.3554633 66.256449 0.0214579806
C 63.5849646 66.958228 0.0037620538
C 63.6161219 68.4243411 0.00567073504
C 64.8240766 64.824371 0.183295792
C 64.8268195 66.2612933 -0.0130255783
C 66.1160807 66.9738266 -0.0539707215
C 66.0929354 68.4013411 -0.0324943231
C 67.3392674 64.8394065 0.217547659
C 67.3571304 66.2431883 0.00620283191
C 68.5824773 66.9585494 -0.0071073863
C 68.6189382 68.4021365 -0.0970931561
C 69.840292 64.8789696 0.239705199
C 69.8635654 66.2876309 0.0509506707
C 71.1295539 66.964948 -0.0563154633
C 71.1229588 68.4204319 -0.11268407
C 72.3886161 64.8914166 0.271016863
C 72.4115622 66.2590682 0.0819251043
C 73.6511976 67.0009875 0.0886181003
C 73.631876 68.4064573 0.0255237827
C 74.8809948 64.8651606 0.299135313
C 74.9126287 66.2815817 0.31446004
C 76.1911839 67.0118251 0.306039056
C 76.1538641 68.455603 0.288685685
C 77.3267538 64.8424807 0.383533105
C 77.3751223 66.2732907 0.363448033
C 78.6129562 66.9592404 0.281991427
C 78.6160234 68.3648112 0.306757174
C 79.8253491 64.7748795 0.383930541
C 79.8684245 66.2041166 0.340151525
C 81.08778 66.9539951 0.33493808
C 81.099668 68.3696829 0.334037505
C 82.3439501 64.8232744 0.282856765
C 82.3381345 66.2594684 0.338070295
C 83.5277418 66.9555965 0.289583701
C 83.5541589 68.4036237 0.30012407
C 84.8470315 64.7930003 0.337203448
C 84.8397556 66.2378952 0.233665314
C 86.0486927 66.9357249 0.0944849927
C 86.0762502 68.405226 0.109065015
C 87.3231032 64.8092528 0.044396824
C 87.3195804 66.2334063 0.0050848504
C 88.5654509 66.9705971 -0.117020713
C 88.5887945 68.4042422 -0.0457322958
C 89.8071931 64.7884081 -0.0739864808
C 89.8496387 66.2492052 -0.0468784906
C 91.0482387 66.9726223 0.0216143308
C 91.0296639 68.4546418 0.0603460905
C 92.295211 64.8287951 0.0646010951
C 92.2794079 66.2516739 0.0530613167
C 93.5318021 66.9623531 0.017011794
C 93.5492058 68.4400526 0.0601516972
C 94.7667871 64.7648694 0.100086103
C 94.7669596 66.2071473 0.0871582623
C 96.011633 66.9453324 0.192650839
C 96.0379508 68.4040498 0.115150647
C 97.2772717 64.7755759 0.112665915
C 97.2940489 66.2260913 0.145742095
C 98.5689156 66.9516064 0.115559662
C 98.5024752 68.3929791 -0.0599609998
C 99.7620886 64.8216032 -0.00721234985
C 99.7934304 66.2126493 0.0502161934
C 101.019517 66.8996024 -0.100623332
C 101.009049 68.2938936 -0.318297104
C 102.227558 64.7437662 -0.180134939
C 102.262807 66.1509755 -0.158431708
C 103.499244 66.9154411 -0.192097803
C 103.506234 68.3338994 -0.268676236
C 104.780349 64.818114 -0.218193592
C 104.757735 66.2507616 -0.281076915
C 106.007509 66.9370746 -0.308834283
C 105.992573 68.3610353 -0.233813548
C 107.295972 64.7656747 -0.282989508
C 107.265081 66.2141628 -0.34320927
C 108.494328 66.941112 -0.21530786
C 108.525006 68.3844718 -0.210182125
C 109.779175 64.7770522 -0.0745443605
C 109.764393 66.1836194 -0.241301849
C 111.05721 66.9215101 -0.255108941
C 110.998422 68.3799173 -0.152284234
C 112.233664 64.7546179 0.0387962271
C 112.281305 66.1845441 -0.0940540724
C 113.517834 66.9345593 -0.0187945158
C 113.421841 68.350695 -0.00130116022
C 114.800915 64.7768913 0.198447715
C 114.775889 66.2214496 0.131521616
C 116.019614 66.9813424 0.190858003
C 115.971343 68.417215 0.117459189
C 117.297316 64.8130285 0.416880658
C 117.23532 66.298866 0.325753914
C 118.495491 67.0530804 0.35315467
C 118.483772 68.4857226 0.339206648
C 119.726234 64.8143286 0.511733773
C 119.701568 66.2302771 0.405822711
C 120.957122 67.0150404 0.558955368
C 120.936574 68.4556402 0.549918196
C 122.210265 64.8876385 0.822210343
C 122.209647 66.2772495 0.71215984
C 123.481433 67.0277098 0.841010188
C 123.467785 68.4667403 0.872224294
C 124.70038 64.8441268 1.09097667
C 124.708129 66.3160616 0.93556417
C 125.957858 67.0635418 0.972833121
C 125.949371 68.4815556 0.963754363
C 127.219414 64.8714877 1.10210777
C 127.234425 66.3019447 1.0887326
C 128.485804 67.0577065 1.06589257
C 128.467642 68.4891027 0.852368743
C 129.723752 64.8946423 1.20327124
C 129.768894 66.3333741 1.06959224
C 130.977631 67.0393478 0.904424349
C 130.995962 68.4822239 0.754392518
C 132.192317 64.8539793 1.19232048
C 132.209935 66.3318319 1.0238732
C 133.510981 67.0333059 0.890865278
C 133.478335 68.5030665 0.680394112
C 134.742525 64.9411459 1.10986361
C 134.782222 66.3825704 1.02092873
C 136.035833 67.0749669 0.870859884
C 135.973405 68.5116812 0.682008034
C 137.22042 64.8617873 1.011076
C 137.260069 66.3270004 0.886782728
C 138.491881 66.9993473 0.717793436
C 138.459683 68.4855949 0.581027952
C 139.716117 64.8209002 0.888854702
C 139.730152 66.2829771 0.73265727
C 140.94412 67.0062737 0.637713694
C 140.979596 68.4694668 0.460200869
C 142.148073 64.8535129 0.819794096
C 142.153382 66.2678028 0.790540981
C 143.423666 67.0589869 0.732029857
C 143.397677 68.4934083 0.702905546
C 144.635983 64.9129593 0.808349763
C 144.682211 66.3651346 0.788979318
C 145.913739 67.058636 0.902784088
C 145.922868 68.4912014 1.01271061
C 147.151498 64.8693173 0.93182879
C 147.148415 66.3278528 1.05385661
C 148.433042 67.0354179 1.16168774
C 148.447272 68.4723911 1.19847045
C 149.68164 64.8861786 1.01796839
C 149.649843 66.2601276 1.15127703
C 150.847986 67.0141156 1.29278145
C 150.867026 68.4445145 1.39556067
C 152.145498 64.9000697 1.02069318
C 152.108745 66.3013424 1.29729629
C 153.292278 67.0455647 1.3083171
C 153.338161 68.516183 1.29525635
C 154.578964 64.9335727 1.12843601
C 154.601952 66.392629 1.21312277
C 155.839998 67.0718749 1.05218947
C 155.824852 68.5195007 1.12306523
C 157.064677 64.8704256 0.895823071
C 157.087199 66.3087051 0.912505951
C 158.34896 67.0601335 0.897422596
C 158.312211 68.4479664 0.845313564
C 159.614337 64.9160048 0.842383559
C 159.55765 66.339628 0.839346927
C 160.83983 67.0294771 0.771034565
C 160.841193 68.4319316 0.79448271
C 162.079474 64.853332 0.731526589
C 162.067381 66.2953612 0.791407106
C 163.343794 66.9624912 0.759907829
C 163.330046 68.4350167 0.759857241
C 164.574135 64.8357666 0.533419117
C 164.572883 66.2521289 0.640171695
C 165.818459 66.94831 0.661762994
C 165.834733 68.3841214 0.728439523
C 167.07223 64.8326933 0.436262287
C 167.055095 66.2373817 0.659498399
C 168.321992 66.9710294 0.620823476
C 168.323904 68.400223 0.547755622
C 169.606339 64.8112011 0.477692341
C 169.57615 66.2594911 0.587513054
C 170.790209 66.9912366 0.400212651
C 170.812562 68.4335857 0.466854615
C 172.089905 64.7849431 0.153703586
C 172.038351 66.2695256 0.200599153
C 173.318398 66.9140235 0.295035202
C 173.337533 68.39808 0.341743723
C 174.559441 64.7720554 0.186481416
C 174.54219 66.2579087 0.31611364
C 175.811625 66.910605 0.365399248
C 175.807321 68.3247128 0.348326809
C 177.116216 64.7959149 0.197675572
C 177.070888 66.2213911 0.263363855
C 178.306507 66.9367088 0.285670923
C 178.32028 68.4037995 0.251809896
C 179.575663 64.7826838 0.279598069
C 179.532853 66.1953528 0.414943215
C 180.762767 66.9381412 0.522559828
C 180.795923 68.3570395 0.479400333
C 182.065132 64.7759018 0.632741628
C 182.004095 66.2109372 0.607061618
C 183.284877 66.9039082 0.64970561
C 183.253434 68.3707906 0.615696681
C 184.61719 64.7736722 0.675394745
C 184.528835 66.2195581 0.754951272
C 185.816066 66.8948402 0.788156632
C 185.841575 68.336217 0.695080774
C 187.098832 64.7360488 0.73771543
C 187.044474 66.172668 0.788336322
C 188.299576 66.8973528 0.766464967
C 188.305862 68.3699951 0.787436224
C 189.597122 64.7323199 0.521739708
C 189.573033 66.1718044 0.613702834
C 190.816263 66.9157434 0.60272984
C 190.783487 68.367628 0.726443042
C 192.032443 64.7535849 0.384281559
C 192.065386 66.1795904 0.441633292
C 193.309288 66.9113298 0.557111361
C 193.291036 68.3434565 0.705865096
C 194.519924 64.7152201 0.319368902
C 194.542394 66.1735245 0.493778296
C 195.774503 66.936627 0.476656257
C 195.807061 68.3658798 0.623872613
C 197.031647 64.7712944 0.375395179
C 197.01516 66.1923667 0.443074273
C 198.24003 66.9273892 0.576291855
C 198.259013 68.318748 0.703630237
C 199.517596 64.6952286 0.520978986
C 199.504539 66.1696613 0.613583039
C 200.765689 66.8967201 0.790556937
C 200.741776 68.2863167 0.983542592
C 201.991087 64.6937123 0.872797143
C 202.013546 66.1501486 0.915719111
C 203.275985 66.9332915 0.965241952
C 203.248148 68.3748625 1.04731251
C 204.494101 64.7835145 0.852588417
C 204.470679 66.223131 0.978338383
C 205.760617 66.9679606 1.00945697
C 205.749641 68.4148873 1.17448707
C 206.965678 64.8078603 0.687010548
C 206.950311 66.2769941 0.812528829
C 208.219348 66.9178596 0.842242324
C 208.247082 68.3250052 1.05193242
C 209.500812 64.755616 0.540754497
C 209.484937 66.2092768 0.733110793
C 210.719236 66.9510022 0.677723626
C 210.725775 68.4058202 0.923921413
C 211.970933 64.8010644 0.266244979
C 211.980299 66.268419 0.457076489
C 213.236398 66.9912557 0.527698195
C 213.262649 68.4181874 0.622985632
C 214.442494 64.8225375 0.268064192
C 214.460752 66.2510655 0.367692833
C 215.715899 67.004536 0.278511594
C 215.733287 68.44747 0.389478071
C 216.968242 64.8853763 0.0789325817
C 216.963088 66.3096822 0.145569602
C 218.239951 67.0371379 0.114396089
C 218.263611 68.4854477 0.260417692
C 219.46749 64.8848462 -0.121727283
C 219.499773 66.339767 -0.0553701545
C 220.748096 67.0372126 0.0211491929
C 220.724836 68.4627302 0.130180264
C 222.000997 64.8922939 -0.0414135798
C 222.013239 66.2911587 0.109757704
C 223.275319 67.0128323 0.236862112
C 223.240565 68.4670282 0.247129604
C 224.487077 64.887246 0.134643394
C 224.49816 66.2756733 0.274935137
C 225.73696 66.97807 0.316795376
C 225.743706 68.4411979 0.395853005
C 226.975975 64.8545879 0.231609658
C 226.986082 66.2960988 0.24178972
C 228.246499 67.0000628 0.152968787
C 228.238787 68.4374752 0.256984515
C 229.458554 64.8094507 0.142283709
C 229.455127 66.2856426 0.0523364347
C 230.738681 66.9579783 0.0613795737
C 230.743938 68.4155566 0.069285542
C 231.967659 64.7928016 0.152335328
C 231.951119 66.2262794 0.0552713489
C 233.184534 66.9709909 -0.089480896
C 233.198068 68.3829724 -0.121168094
C 234.457475 64.7998251 0.0286515902
C 234.43631 66.1930126 -0.0895330241
C 235.719061 66.9108781 -0.142877519
C 235.712735 68.3545794 -0.230073782
C 237.000351 64.7735324 -0.0846286826
C 237.010448 66.2383833 -0.215920819
C 238.211737 66.9050085 -0.337026535
C 238.282962 68.3204455 -0.303128774
C 239.482799 64.7315567 -0.217126346
C 239.478882 66.1389821 -0.399211782
C 240.662714 66.9123489 -0.446016438
C 240.725512 68.3257924 -0.51457878
C 241.958289 64.7741944 -0.132226091
C 241.910108 66.2154277 -0.32449189
C 243.158523 66.9474084 -0.4348587
C 243.191964 68.3591431 -0.47792686
C 244.414755 64.7801192 -0.177160486
C 244.436362 66.1978216 -0.302156355
C 245.642884 66.9179768 -0.396513146
C 245.676092 68.3712441 -0.434641433
C 246.919268 64.7610383 -0.264988036
C 246.885497 66.2204108 -0.402031964
C 248.176571 66.9394914 -0.408493849
C 248.196771 68.3932064 -0.456584256
C 0.0165553208 69.095472 -0.423864071
C 249.393501 70.5498525 -0.541246696
C 1.21061592 71.2484618 -0.607942348
C 1.18313718 72.6753961 -0.61796975
C 2.51973487 69.0843714 -0.427625672
C 2.44131711 70.4902893 -0.554682073
C 3.65813134 71.2786868 -0.613221407
C 3.70482404 72.6982454 -0.540832176
C 4.96748293 69.1066276 -0.486780387
C 4.89138629 70.5605342 -0.564793334
C 6.24626913 71.2858805 -0.471277515
C 6.18806958 72.7190468 -0.439963214
C 7.49639105 69.0904643 -0.398643713
C 7.49455598 70.5518781 -0.436019382
C 8.74577386 71.2427383 -0.418201176
C 8.70549352 72.7104278 -0.514783577
C 9.98705343 69.1056644 -0.303926967
C 9.99770655 70.5303826 -0.370398207
C 11.2367251 71.2339713 -0.467881996
C 11.2232322 72.7115297 -0.509178011
C 12.477978 69.0827292 -0.311225266
C 12.4996047 70.5463777 -0.413954504
C 13.7739462 71.2672874 -0.539394623
C 13.7157708 72.7240727 -0.525084696
C 14.9776349 69.0818889 -0.380933777
C 14.9727428 70.5241916 -0.465347359
C 16.3031187 71.2398797 -0.459099374
C 16.2064174 72.6560585 -0.464525106
C 17.451432 69.1223839 -0.377266044
C 17.5235883 70.5578897 -0.380865044
C 18.7290165 71.3001373 -0.368131617
C 18.6994941 72.7099158 -0.388846185
C 19.9590792 69.1004722 -0.446418727
C 19.964742 70.5440984 -0.38104015
C 21.1950606 71.2888568 -0.287279061
C 21.2219742 72.7207574 -0.242938863
C 22.4736485 69.1470733 -0.442761791
C 22.4520554 70.5730043 -0.246610713
C 23.7187472 71.2818413 -0.0755393599
C 23.6887709 72.7046126 0.022059861
C 24.92248 69.107888 -0.162535828
C 24.950421 70.5044038 -0.0181232236
C 26.1615232 71.2407515 0.22054612
C 26.1651655 72.6972348 0.352628656
C 27.4168166 69.0970782 0.109490682
C 27.4221975 70.5245421 0.275491441
C 28.6514767 71.2756379 0.346620579
C 28.6610709 72.6992543 0.430202724
C 29.892874 69.1270593 0.436406005
C 29.9282054 70.5251854 0.480112212
C 31.1611805 71.2843173 0.51245623
C 31.1724462 72.6965423 0.44751104
C 32.3851298 69.1206384 0.434303143
C 32.4071621 70.5647007 0.506733249
C 33.6623241 71.2612436 0.451455258
C 33.6927871 72.6874956 0.492348334
C 34.9323828 69.167038 0.437750847
C 34.9262113 70.5784181 0.545121747
C 36.1599805 71.2715236 0.688668069
C 36.1852575 72.710091 0.581819643
C 37.4703213 69.1398166 0.6159636
C 37.4089687 70.5677557 0.691511679
C 38.6617373 71.2634742 0.692192944
C 38.6849994 72.7048272 0.579961259
C 39.9330621 69.1193968 0.564295561
C 39.9162139 70.5321603 0.673442674
C 41.1366809 71.2634546 0.658720513
C 41.1865355 72.6925566 0.509999939
C 42.4015947 69.1616603 0.591795168
C 42.3418457 70.576326 0.699526003
C 43.5832918 71.3117003 0.621946738
C 43.6161293 72.7759489 0.656753689
C 44.8603078 69.1668153 0.425892103
C 44.8540434 70.6000461 0.541382609
C 46.0795473 71.3158485 0.501913248
C 46.0982876 72.7868184 0.540293014
C 47.3760796 69.1764195 0.202050219
C 47.3305376 70.603974 0.329950785
C 48.6036521 71.282713 0.234397404
C 48.6078168 72.75306 0.250398714
C 49.896754 69.1490143 0.0544491482
C 49.8519878 70.5815608 0.164830887
C 51.0833809 71.3239305 0.182553647
C 51.1023966 72.7522777 0.16470444
C 52.3234259 69.1373967 0.0679233121
C 52.313237 70.5778408 0.210009088
C 53.6306686 71.2546309 0.274118672
C 53.5891673 72.7382328 0.150643185
C 54.8676126 69.1435538 0.101179343
C 54.891807 70.5450544 0.151083197
C 56.11348 71.3111964 0.120686894
C 56.1120842 72.7945767 0.0740941232
C 57.3217988 69.1558101 0.108478758
C 57.3505346 70.5786998 0.13296604
C 58.6176264 71.2513379 0.137742704
C 58.6396179 72.7020514 0.145178569
C 59.8693654 69.0928987 0.0884341932
C 59.8788559 70.5274755 -0.00687394601
C 61.1193475 71.2941997 0.00795780034
C 61.0740087 72.6933897 0.0124143199
C 62.3529244 69.1273731 0.0566482043
C 62.318089 70.5577529 -0.000136799346
C 63.5857991 71.2731805 0.0246167416
C 63.6130089 72.7182282 0.00321776117
C 64.8344834 69.0868058 0.0185767786
C 64.8587147 70.5541792 -0.016068591
C 66.1205269 71.2686059 -0.0911303854
C 66.1037834 72.7374656 -0.00921083439
C 67.3606268 69.0832775 -0.113440071
C 67.4110721 70.5063875 -0.126622646
C 68.6235062 71.2613022 -0.225619572
C 68.573586 72.7009899 -0.147331783
C 69.8732102 69.1077754 -0.2044313
C 69.8385848 70.5608945 -0.247603611
C 71.0814438 71.2651194 -0.196861439
C 71.0535478 72.7059535 -0.190781174
C 72.3528413 69.1339341 -0.0461264108
C 72.3279359 70.5411293 -0.111649984
C 73.6014678 71.2730287 -0.140177941
C 73.6107346 72.7294214 -0.130310945
C 74.8724481 69.157136 0.104068658
C 74.8690813 70.612214 -0.0189082837
C 76.1115269 71.3727557 -0.0410939566
C 76.1130718 72.769533 -0.00635753407
C 77.3886689 69.1888535 0.227427084
C 77.3946714 70.6234684 0.0575416777
C 78.6696476 71.288611 0.0719641702
C 78.638725 72.7235033 0.0398283389
C 79.8511865 69.10692 0.237745129
C 79.907492 70.5072881 0.134304262
C 81.0942867 71.2876875 0.15990847
C 81.0968407 72.7112956 0.050805828
C 82.2806575 69.1392878 0.312029755
C 82.2929546 70.561977 0.16221323
C 83.548648 71.2430452 0.149522069
C 83.6173604 72.7095841 0.114057245
C 84.8228271 69.0855317 0.176086384
C 84.8353228 70.5275933 0.0836224356
C 86.0283185 71.260562 0.0356034893
C 86.1031499 72.7021212 0.08236662
C 87.3073599 69.0828076 -0.0377570274
C 87.2829849 70.5344891 0.0513193961
C 88.538061 71.2997343 0.166437143
C 88.5848245 72.7419311 0.289296941
C 89.7691567 69.1254381 0.0599385338
C 89.8120567 70.5759456 0.130335196
C 91.049701 71.2746143 0.164505618
C 91.0506194 72.7600636 0.181058032
C 92.2660017 69.1751271 0.0358439187
C 92.2929753 70.6017406 0.0904148981
C 93.5051839 71.3660352 0.0987574379
C 93.5445556 72.7845776 0.0635791394
C 94.7594628 69.1582036 0.0471631334
C 94.796111 70.6288378 0.0618380023
C 96.0246214 71.2993032 0.0141585093
C 96.0531972 72.7502498 0.0137580945
C 97.2880897 69.0727569 0.0338645044
C 97.2512955 70.5500868 -0.0239982462
C 98.4560528 71.2568673 -0.199463195
C 98.5162516 72.714875 -0.104339771
C 99.7600046 69.0348525 -0.274270145
C 99.7255498 70.4920486 -0.337890256
C 100.968264 71.2407959 -0.359214961
C 101.030242 72.6810298 -0.285638445
C 102.24172 69.0603739 -0.363598278
C 102.234123 70.4985653 -0.300640257
C 103.474405 71.2300285 -0.23296334
C 103.483654 72.6482031 -0.182332152
C 104.763604 69.0721209 -0.231192217
C 104.767343 70.5323768 -0.251794816
C 105.981593 71.2574063 -0.229914471
C 105.953721 72.7004871 -0.228356654
C 107.288977 69.0859874 -0.193061235
C 107.280903 70.545049 -0.198614979
C 108.521556 71.2611179 -0.285586331
C 108.511933 72.6994316 -0.306357266
C 109.767204 69.0737115 -0.254916367
C 109.781314 70.519746 -0.300798798
C 111.001752 71.2217588 -0.316377356
C 110.997638 72.6422479 -0.318337705
C 112.186494 69.1046638 -0.0701214878
C 112.252106 70.5144806 -0.166078317
C 113.513609 71.2620656 -0.10981633
C 113.515018 72.6900504 -0.126335637
C 114.676223 69.0892659 0.00962797036
C 114.730247 70.5246059 -0.104440846
C 115.977829 71.3000602 -0.0531018713
C 115.958955 72.7421727 -0.00487344708
C 117.224631 69.1849324 0.177964054
C 117.242698 70.5953728 0.0805357179
C 118.46001 71.3299899 0.133330609
C 118.45381 72.7388737 0.110838575
C 119.726676 69.1975973 0.423489556
C 119.70446 70.6065749 0.260682815
C 120.963239 71.3461304 0.342704724
C 120.977297 72.7540213 0.238980287
C 122.195149 69.1521894 0.678296819
C 122.153817 70.617367 0.537835919
C 123.459615 71.3286622 0.587745576
C 123.473978 72.7693005 0.470392665
C 124.711319 69.1959729 0.881621013
C 124.774862 70.6545515 0.716017257
C 125.984346 71.414287 0.632603282
C 125.997378 72.824639 0.578627685
C 127.205682 69.2091324 0.81027245
C 127.182576 70.64707 0.663874029
C 128.419942 71.3414702 0.465055389
C 128.461419 72.7965475 0.419908583
C 129.700188 69.1949798 0.686234267
C 129.701351 70.6094099 0.464294107
C 130.918001 71.329202 0.285227787
C 130.933658 72.758686 0.130711041
C 132.237241 69.2031752 0.628337963
C 132.209819 70.5845486 0.366723851
C 133.434334 71.3226324 0.261895053
C 133.420291 72.7394517 0.0867448068
C 134.714088 69.2423897 0.57397368
C 134.711573 70.6240838 0.358879939
C 136.002967 71.2997351 0.191163998
C 135.972191 72.750039 0.0473056438
C 137.221826 69.2482422 0.500269654
C 137.230061 70.5736486 0.284262767
C 138.485669 71.3268267 0.229965962
C 138.499537 72.7731462 0.21323744
C 139.722552 69.2035896 0.374531985
C 139.719351 70.6461382 0.257285511
C 140.964044 71.3476461 0.347513428
C 140.956377 72.7847936 0.38509951
C 142.209572 69.1716532 0.566541572
C 142.202524 70.6238306 0.593692943
C 143.40837 71.3686337 0.714178792
C 143.413251 72.8072205 0.609625251
C 144.631289 69.1940028 0.842644072
C 144.661926 70.6526485 0.839788896
C 145.934725 71.3808283 0.91901445
C 145.92143 72.7925839 0.801333528
C 147.181453 69.1935819 1.15848487
C 147.18349 70.6628191 1.05927203
C 148.469884 71.360116 1.11997591
C 148.440061 72.818639 1.05765937
C 149.679824 69.2058024 1.27508207
C 149.747457 70.6222811 1.17412624
C 150.936194 71.4210966 1.22718767
C 150.913885 72.8282873 1.25105513
C 152.088575 69.217508 1.34378309
C 152.134448 70.6857565 1.21789614
C 153.381309 71.3856293 1.20025391
C 153.42816 72.8215286 1.08678547
C 154.597096 69.2037668 1.26421936
C 154.633674 70.6778131 1.14807265
C 155.860052 71.3899369 0.952665332
C 155.904482 72.8215588 0.873850496
C 157.072177 69.1916622 0.9875984
C 157.128881 70.6207386 0.881823884
C 158.362853 71.3191288 0.680053769
C 158.356796 72.7696279 0.594528372
C 159.574938 69.1452321 0.716610607
C 159.615765 70.5999653 0.754752721
C 160.873779 71.3128955 0.792315104
C 160.881521 72.7593543 0.688477392
C 162.077695 69.1227768 0.767058931
C 162.091533 70.5940856 0.772226692
C 163.362863 71.3115596 0.709903988
C 163.381909 72.7545215 0.618783544
C 164.627347 69.1351503 0.695726954
C 164.607611 70.6009304 0.648600466
C 165.858959 71.2741808 0.489999964
C 165.865307 72.7137648 0.507514296
C 167.071084 69.1081538 0.536340896
C 167.118492 70.5599289 0.48677039
C 168.368597 71.2278235 0.482038462
C 168.35566 72.6959143 0.392519821
C 169.567424 69.1386398 0.543726283
C 169.627679 70.5865876 0.562405518
C 170.858173 71.292157 0.40745914
C 170.840298 72.7363244 0.372169524
C 172.126281 69.1027988 0.441729978
C 172.106822 70.5619896 0.407046017
C 173.295584 71.3040251 0.42452919
C 173.324799 72.7599351 0.429083208
C 174.621667 69.1182199 0.379006142
C 174.563292 70.5364991 0.353477705
C 175.771178 71.246851 0.178806631
C 175.818306 72.691459 0.231136596
C 177.044731 69.0802731 0.285217957
C 177.061775 70.5422326 0.130485009
C 178.364062 71.2421054 0.136200639
C 178.347702 72.7082213 0.138464422
C 179.558693 69.1008004 0.346488491
C 179.572396 70.5303162 0.292571683
C 180.8292 71.2686324 0.369004074
C 180.786979 72.7571548 0.301733567
C 182.041655 69.102151 0.520336015
C 182.102356 70.5171306 0.438233716
C 183.3378 71.2573297 0.4444879
C 183.298778 72.6688415 0.502276247
C 184.545442 69.0999507 0.626894114
C 184.603154 70.4989542 0.557519747
C 185.827521 71.2117442 0.711704257
C 185.810981 72.6162223 0.754902533
C 187.070724 69.025791 0.781426364
C 187.082119 70.4775807 0.777856436
C 188.34223 71.2437577 0.784671115
C 188.31984 72.6406763 0.69497238
C 189.57182 69.0820908 0.755877225
C 189.608051 70.5296671 0.794952927
C 190.837523 71.2169486 0.769853434
C 190.808977 72.6548343 0.801993516
C 192.009691 69.0730632 0.727585387
C 192.065321 70.5276406 0.80715284
C 193.317996 71.2140634 0.826101437
C 193.303035 72.6404353 0.87387081
C 194.523722 69.0615118 0.697444003
C 194.556892 70.5053355 0.810217164
C 195.809393 71.2117859 0.863455151
C 195.801631 72.6282354 0.923077182
C 197.061237 69.0474746 0.697679874
C 197.077558 70.4938077 0.855061029
C 198.293519 71.2247275 0.911250936
C 198.303022 72.6451971 1.04458519
C 199.526592 69.0639871 0.892115866
C 199.534829 70.4999721 0.963136466
C 200.785025 71.2369322 1.14990673
C 200.763364 72.6280578 1.24219453
C 201.973618 69.047499 1.08587381
C 202.013862 70.474699 1.26351917
C 203.209675 71.2341963 1.32784981
C 203.261357 72.6602347 1.32910049
C 204.484493 69.1114367 1.17116777
C 204.49202 70.5311772 1.27055286
C 205.765609 71.2480186 1.3535298
C 205.766295 72.6968889 1.3642589
C 207.047962 69.0903794 1.17825961
C 207.018599 70.5251012 1.30217734
C 208.23674 71.2484097 1.23523679
C 208.285919 72.6413556 1.23672933
C 209.477976 69.1017962 1.10174927
C 209.474365 70.5454718 1.09534217
C 210.748371 71.2861777 1.04993644
C 210.781435 72.752922 1.07736506
C 212.044923 69.1519213 0.824747694
C 212.044067 70.5969535 0.879901851
C 213.245901 71.3042605 0.819007611
C 213.292178 72.7656484 0.92985025
C 214.488392 69.1422725 0.571550569
C 214.473221 70.5876418 0.810817643
C 215.756569 71.2897355 0.831213222
C 215.825331 72.7016311 0.962061126
C 216.984412 69.1699857 0.418073423
C 216.994731 70.6085631 0.655527158
C 218.229521 71.3537726 0.588090495
C 218.277845 72.7820729 0.792615036
C 219.547639 69.2080348 0.28945027
C 219.463809 70.6852087 0.485880502
C 220.77281 71.3814366 0.490601385
C 220.805748 72.7651157 0.582393867
C 222.011921 69.1838131 0.194001269
C 221.994729 70.6157264 0.357077225
C 223.245217 71.272349 0.466798263
C 223.25762 72.6776758 0.622372
C 224.490783 69.1535468 0.336744159
C 224.516688 70.585396 0.30670379
C 225.751757 71.3273504 0.330191591
C 225.763091 72.7562549 0.434386461
C 226.993431 69.1392949 0.307510182
C 226.973405 70.5737937 0.27953974
C 228.250235 71.2885566 0.225461518
C 228.265965 72.7072574 0.343876734
C 229.524219 69.1500265 0.205904743
C 229.498996 70.5669052 0.142023745
C 230.751184 71.2658654 -0.00238735675
C 230.789957 72.6961386 0.0728353746
C 231.952942 69.1232112 -0.083276502
C 231.978081 70.5482994 -0.193887703
C 233.223058 71.2866084 -0.224453545
C 233.268424 72.7454039 -0.22736667
C 234.469203 69.1310035 -0.170666643
C 234.484904 70.5763431 -0.203022719
C 235.73784 71.2582123 -0.405969709
C 235.761112 72.6906286 -0.416994445
C 237.030698 69.0770301 -0.354877285
C 237.010807 70.5345132 -0.362426522
C 238.214168 71.2243147 -0.419307244
C 238.22906 72.6752451 -0.587565294
C 239.485894 69.0582548 -0.443914121
C 239.455646 70.459987 -0.430651046
C 240.686364 71.2096905 -0.514478522
C 240.742629 72.6474054 -0.667861228
C 241.950431 69.0813112 -0.514058595
C 241.988321 70.5412499 -0.492181933
C 243.215497 71.2594751 -0.552170649
C 243.214803 72.704932 -0.576541841
C 244.438341 69.0751421 -0.476663411
C 244.460562 70.5247338 -0.563115887
C 245.725652 71.195833 -0.649396586
C 245.702381 72.6652938 -0.818585934
C 246.927106 69.0521261 -0.409421665
C 246.932495 70.4832586 -0.582896424
C 248.137238 71.2036264 -0.627795057
C 248.117285 72.6843616 -0.859975401
C 249.381463 73.3584978 -0.827340401
C 249.376959 74.7388545 -1.0148553
C 1.2436638 75.4796647 -1.01772413
C 1.23014165 77.0104341 -1.08228438
C 2.46137161 73.3917236 -0.675919805
C 2.47794089 74.8132009 -0.861311618
C 3.69116856 75.5416922 -0.724738299
C 3.72131493 77.0094596 -0.759749958
C 4.936866 73.3957553 -0.52239421
C 4.95086505 74.8089928 -0.637420093
C 6.16460273 75.5798628 -0.656219897
C 6.21428676 77.0102219 -0.673300688
C 7.44982405 73.4571589 -0.441710901
C 7.4533833 74.8542182 -0.550506098
C 8.6805378 75.5895353 -0.531846464
C 8.68048886 77.0502639 -0.573832076
C 9.94548304 73.4557583 -0.556595204
C 9.91852279 74.9264864 -0.535005439
C 11.1736667 75.631589 -0.516220777
C 11.1758946 77.0318559 -0.462394173
C 12.4498789 73.4008078 -0.529168662
C 12.4329593 74.8783188 -0.528112183
C 13.6850454 75.6173258 -0.59627532
C 13.6871162 77.055623 -0.576031289
C 14.9224051 73.399091 -0.437304023
C 14.9393549 74.8500873 -0.564632915
C 16.1670763 75.5695926 -0.61890551
C 16.1781884 77.0290228 -0.681667978
C 17.4322261 73.429123 -0.434973011
C 17.4245681 74.8537003 -0.542073002
C 18.7108241 75.5735804 -0.523962244
C 18.7167228 77.0057223 -0.654543678
C 19.9418618 73.4221659 -0.326193854
C 19.9790309 74.8785747 -0.35009509
C 21.2192308 75.5801051 -0.314218272
C 21.2054226 77.0356545 -0.46152342
C 22.4658286 73.4361093 -0.0610631181
C 22.4376143 74.8737715 -0.12184651
C 23.6806472 75.640866 -0.0821100372
C 23.7048959 77.0612171 -0.19943258
C 24.9054598 73.430175 0.153529213
C 24.9034486 74.8963177 0.0295321855
C 26.1677768 75.6418587 0.0783382987
C 26.1837484 77.0584952 -0.0814633671
C 27.3904756 73.4468756 0.410622991
C 27.3728466 74.8773828 0.335838404
C 28.6282257 75.5568151 0.281763669
C 28.6519383 76.9821603 0.203652983
C 29.9059975 73.4214004 0.459441244
C 29.9174434 74.8361623 0.424840126
C 31.1584432 75.5520339 0.495483204
C 31.1562483 77.06724 0.377478311
C 32.465855 73.3791543 0.490410081
C 32.3950987 74.8639108 0.531623833
C 33.6877074 75.560377 0.507207372
C 33.6674288 77.0515101 0.51599614
C 34.9470051 73.4261686 0.535820852
C 34.9318631 74.8579637 0.594110311
C 36.1672993 75.5783967 0.617817479
C 36.1874131 77.0800844 0.608363341
C 37.4010569 73.4210003 0.543723453
C 37.43277 74.8796605 0.602805763
C 38.6730697 75.6318948 0.505683052
C 38.6956633 77.0786455 0.436646878
C 39.9189698 73.4381225 0.525649446
C 39.9268304 74.8693903 0.494137241
C 41.143547 75.6133579 0.591530843
C 41.1372581 77.0756273 0.410096471
C 42.3748423 73.4909631 0.544108224
C 42.384367 74.9320945 0.633495433
C 43.6271549 75.6414817 0.602992106
C 43.6246624 77.0650277 0.45801037
C 44.8938485 73.5307029 0.530889507
C 44.8962485 74.9191242 0.553353978
C 46.1108652 75.6297943 0.44377435
C 46.1140295 77.0859405 0.401498983
C 47.3570029 73.4969799 0.38830659
C 47.3466321 74.9539204 0.442168418
C 48.6157154 75.6520434 0.321937625
C 48.6128648 77.0554884 0.254202033
C 49.8636786 73.4829104 0.223352096
C 49.849359 74.9063214 0.167784908
C 51.0905862 75.6570135 0.130537279
C 51.0707452 77.0697507 0.108306529
C 52.3568802 73.4494646 0.16599554
C 52.3762576 74.9116016 0.161329577
C 53.5953706 75.6125203 0.166276883
C 53.5917401 77.0280483 0.128673254
C 54.8532883 73.4667423 0.0804885096
C 54.8489313 74.9258772 0.107069789
C 56.1025704 75.6111625 0.0443287604
C 56.0453293 77.0349651 0.0846568779
C 57.3914757 73.4421495 0.0605392755
C 57.3917018 74.8772183 -0.000737950751
C 58.6118266 75.5868199 -0.0655126768
C 58.5871987 77.0514905 -0.0184928165
C 59.8827573 73.4512072 0.00868601698
C 59.8642376 74.8869238 -0.00896916437
C 61.1398201 75.6108688 -0.0477995045
C 61.1132188 77.0479536 -0.0852061217
C 62.3795943 73.4360103 -0.00450115127
C 62.3900968 74.8576709 -0.0918332576
C 63.6065484 75.6079921 -0.0946851258
C 63.6065201 77.0553244 -0.137692739
C 64.8326736 73.4268817 0.0441361833
C 64.8641832 74.8792366 -0.0322367297
C 66.1245982 75.5771079 -0.0189016427
C 66.1310906 77.0474833 0.0136481939
C 67.3501743 73.4713051 -0.0329907469
C 67.3451851 74.8676203 0.00319452586
C 68.5945236 75.6294223 0.0768302898
C 68.5913392 77.0125592 0.199410692
C 69.8280011 73.4668702 -0.162305624
C 69.8363655 74.8904866 0.020061692
C 71.1605112 75.5525041 0.0613231813
C 71.0914335 76.9931796 0.167777778
C 72.3104999 73.450504 -0.0976423541
C 72.3508574 74.8515029 0.0139012149
C 73.6020555 75.5693372 -0.0387120354
C 73.5692139 76.9761858 0.213296369
C 74.8487988 73.4780088 -0.0634946772
C 74.8607205 74.9130202 -0.0266365176
C 76.1546766 75.5830072 0.0242984267
C 76.1175871 77.0019202 0.0744082088
C 77.3536484 73.4679304 0.0143829468
C 77.3756947 74.8839148 0.0568216411
C 78.6105986 75.5573171 0.0900704831
C 78.5612671 76.989299 0.178132818
C 79.853513 73.420507 0.0899462732
C 79.8224044 74.8661471 0.0549352153
C 81.0844194 75.5434004 0.213449244
C 81.0587381 76.9891613 0.205708319
C 82.3627883 73.4157607 0.0314300146
C 82.3192056 74.8592013 0.205205525
C 83.5927858 75.5790031 0.326858815
C 83.5678126 77.0210672 0.233694751
C 84.8383543 73.4597924 0.144366186
C 84.8658689 74.8739025 0.326872285
C 86.1267849 75.6485674 0.279024011
C 86.0565773 77.0946052 0.10884736
C 87.3051441 73.4605407 0.274819469
C 87.3539924 74.8987521 0.332326537
C 88.5637461 75.5881562 0.268427946
C 88.5450645 77.070445 0.184153173
C 89.8463238 73.5021629 0.226062307
C 89.8026959 74.8932075 0.186168535
C 91.050734 75.6512837 0.100606672
C 91.033652 77.0783151 0.0556903205
C 92.3090886 73.4804928 0.0928140745
C 92.3132454 74.9524495 0.113868935
C 93.5547978 75.6579936 0.124952196
C 93.544668 77.0882484 0.180152144
C 94.7787351 73.5027686 0.0661921394
C 94.7914158 74.9033479 0.115418031
C 96.0190098 75.5855819 0.209167529
C 96.0604926 76.990837 0.320826565
C 97.2894888 73.47038 0.0279815444
C 97.2722243 74.8831126 0.0399867342
C 98.5188876 75.6092793 -0.0376997392
C 98.5603596 76.9935421 0.0866835342
C 99.8256922 73.4418908 -0.168330501
C 99.797176 74.8971736 -0.123475699
C 101.006116 75.6082712 -0.0915002616
C 101.0439 77.0496597 -0.0207953159
C 102.239505 73.360643 -0.223940294
C 102.245525 74.8476244 -0.165587557
C 103.509026 75.5633626 -0.0567292164
C 103.543556 76.9651974 -0.114287505
C 104.711477 73.4077728 -0.194018766
C 104.754991 74.832645 -0.1929984
C 106.01281 75.5379479 -0.294570179
C 105.969886 76.9898754 -0.30869131
C 107.258454 73.3990133 -0.280416149
C 107.28622 74.8068723 -0.371665859
C 108.506022 75.5573304 -0.457411026
C 108.515048 76.9818844 -0.419915364
C 109.77044 73.4068529 -0.488748289
C 109.817566 74.8551586 -0.609187627
C 111.000455 75.5682058 -0.621969571
C 111.055351 77.0128911 -0.463816073
C 112.252879 73.41223 -0.230900049
C 112.272522 74.8876892 -0.40004491
C 113.487509 75.6302922 -0.132870539
C 113.490115 77.0262098 -0.183617375
C 114.745472 73.4222751 -0.043413069
C 114.74177 74.8915725 0.0283308198
C 115.976226 75.6561308 0.101733684
C 115.995863 77.0515133 0.161727462
C 117.22451 73.4717106 0.0708325892
C 117.188911 74.9076144 0.109845739
C 118.505581 75.5939639 0.118538007
C 118.520156 77.0400944 0.0623957693
C 119.71156 73.4578765 0.153465675
C 119.727979 74.8962137 0.225693746
C 120.995322 75.6258786 0.26824169
C 121.021664 77.0808139 0.196549709
C 122.211582 73.4706198 0.352507999
C 122.233078 74.8930801 0.200258816
C 123.500651 75.6159804 0.157778408
C 123.537087 77.1391981 0.0897131673
C 124.745121 73.52664 0.419294597
C 124.73575 74.9056162 0.194722924
C 125.996752 75.6273143 -0.0209663356
C 125.980915 77.0964761 -0.257696867
C 127.247226 73.5483971 0.389320737
C 127.239457 74.9079343 0.042676045
C 128.489258 75.6604749 -0.241078938
C 128.497457 77.0468118 -0.455195341
C 129.724219 73.5312716 0.148444364
C 129.709882 74.9196279 -0.144477813
C 130.981547 75.6611522 -0.266266594
C 130.949199 77.0681342 -0.441609964
C 132.216654 73.4622953 -0.055549804
C 132.202771 74.8789585 -0.162940677
C 133.443514 75.6279808 -0.235332145
C 133.44895 77.0392989 -0.345888838
C 134.700245 73.4367484 -0.107329149
C 134.701667 74.9051376 -0.132807794
C 135.948217 75.6553397 -0.223381526
C 135.934791 77.0811952 -0.132753849
C 137.251577 73.4809353 0.0611979386
C 137.211553 74.9224619 -0.060604913
C 138.464259 75.6451507 0.0987426344
C 138.428042 77.0887816 0.12427247
C 139.703444 73.5126504 0.254080777
C 139.685398 74.9299691 0.280393862
C 140.919932 75.6759685 0.316958446
C 140.945049 77.1213078 0.310691916
C 142.179849 73.5025724 0.416399625
C 142.153794 74.9777148 0.352425499
C 143.40542 75.6747053 0.334364296
C 143.417535 77.1124769 0.365876178
C 144.651427 73.5392191 0.694921667
C 144.680205 74.9837852 0.517691352
C 145.891989 75.7251672 0.654361672
C 145.881025 77.132393 0.747093825
C 147.179075 73.539091 0.860931269
C 147.113113 74.9702462 0.773729136
C 148.326005 75.728083 1.00328631
C 148.38161 77.171783 1.01790207
C 149.664107 73.5856391 1.18743059
C 149.626565 75.0038129 1.12294953
C 150.895181 75.7045177 1.10445513
C 150.875985 77.1581593 1.00714787
C 152.209457 73.5577256 1.16477243
C 152.130327 74.9871161 1.11275367
C 153.362926 75.7242507 0.982310694
C 153.34881 77.1697863 0.913808864
C 154.612412 73.5574542 0.923116844
C 154.640746 74.9926456 0.924176048
C 155.884889 75.6925654 0.775658037
C 155.876617 77.1308821 0.765549152
C 157.182949 73.5088742 0.768874427
C 157.137453 74.9329501 0.780908861
C 158.407504 75.6465371 0.680327781
C 158.377617 77.0860512 0.641619201
C 159.650561 73.511627 0.641496497
C 159.6378 74.9557515 0.642475928
C 160.863631 75.6830221 0.662069515
C 160.868467 77.0963921 0.614313777
C 162.143434 73.4628776 0.627307045
C 162.103579 74.932235 0.548868707
C 163.351072 75.6058252 0.413460552
C 163.37381 77.115521 0.444975565
C 164.648549 73.4487611 0.51116473
C 164.613339 74.8625504 0.365456975
C 165.862155 75.6147624 0.305470566
C 165.826901 77.023179 0.237666253
C 167.09781 73.4678478 0.402424434
C 167.079403 74.8878952 0.288473995
C 168.334229 75.6080139 0.217494182
C 168.324912 77.0583846 0.128996563
C 169.573804 73.4642533 0.369239665
C 169.591861 74.8938494 0.336020303
C 170.798711 75.6084123 0.307197123
C 170.793889 77.048877 0.227745015
C 172.080719 73.5159961 0.406328537
C 172.050347 74.9114627 0.387294435
C 173.297263 75.5608356 0.274191129
C 173.320198 77.0194358 0.202111031
C 174.578677 73.4157127 0.298781984
C 174.555394 74.8605948 0.263957934
C 175.801289 75.5424741 0.24662928
C 175.831722 76.9739628 0.161806178
C 177.090612 73.3940375 0.242437273
C 177.038521 74.8468386 0.264897035
C 178.306617 75.5351553 0.207976599
C 178.343867 76.9976514 0.122437495
C 179.568891 73.431548 0.249942189
C 179.581808 74.8495111 0.258537022
C 180.883701 75.5049748 0.222162404
C 180.87653 76.9572879 0.236948731
C 182.036891 73.3742174 0.337715096
C 182.073859 74.7711714 0.326812432
C 183.336825 75.4886314 0.527729081
C 183.339759 76.9393503 0.534361635
C 184.599428 73.3622196 0.727110174
C 184.570029 74.7680029 0.748395244
C 185.79651 75.5055912 0.838509403
C 185.791874 76.9220301 0.813008337
C 187.031649 73.3523783 0.739876576
C 187.049371 74.8179963 0.8365321
C 188.299536 75.4917852 1.05471503
C 188.275221 76.9635801 1.11885467
C 189.557082 73.3688631 0.795033926
C 189.566188 74.8270444 0.993633483
C 190.78029 75.5235518 1.07696796
C 190.769814 76.9509069 1.05772136
C 192.068151 73.3686982 0.90377558
C 192.031867 74.7765019 0.943402841
C 193.274575 75.4907025 0.922229324
C 193.27768 76.9658662 0.906303159
C 194.56786 73.4019837 0.902598562
C 194.52041 74.8238082 0.946246479
C 195.72808 75.5433335 1.03927511
C 195.742039 76.9900329 1.01547679
C 197.019924 73.3439579 0.963399285
C 196.971573 74.7733355 1.02994287
C 198.258785 75.4866602 1.12114817
C 198.218494 76.9300985 1.10676572
C 199.554673 73.3466878 1.17038034
C 199.554181 74.7660412 1.2396336
C 200.793552 75.53302 1.29300069
C 200.770638 76.9512127 1.17904432
C 202.029 73.3758506 1.3498904
C 202.060415 74.8401314 1.27549914
C 203.304603 75.5112201 1.29329798
C 203.274679 76.9821234 1.17716414
C 204.509391 73.3736511 1.35413429
C 204.548704 74.8266358 1.36718095
C 205.802201 75.5025092 1.44521503
C 205.807919 77.0217795 1.41458917
C 207.043073 73.364763 1.28331762
C 207.076321 74.835418 1.3770964
C 208.306177 75.5982718 1.39018807
C 208.317358 77.0145535 1.43903759
C 209.517982 73.3929452 1.22732988
C 209.530343 74.8608481 1.27735108
C 210.777132 75.6046205 1.357109
C 210.793274 77.054753 1.41771599
C 212.020242 73.4572755 1.11790142
C 212.061627 74.8816969 1.29141498
C 213.33495 75.5597772 1.2387124
C 213.33055 76.9917632 1.30778456
C 214.545373 73.4507052 1.09272691
C 214.572978 74.8422022 1.18802848
C 215.821054 75.5748229 1.11875946
C 215.83314 77.0224483 1.09647163
C 217.053411 73.4557692 0.842489772
C 217.063224 74.9058249 1.02611538
C 218.305632 75.5904932 1.12456614
C 218.328581 77.0094626 1.07065271
C 219.557996 73.4316592 0.775461002
C 219.55297 74.8585965 0.933180437
C 220.758633 75.5800047 0.828935186
C 220.77867 77.0482475 0.803863655
C 222.066941 73.4507094 0.63966764
C 222.015906 74.8650179 0.744624254
C 223.277271 75.6213454 0.742158047
C 223.257174 77.0871105 0.660647615
C 224.531516 73.4546829 0.582937793
C 224.532723 74.9240112 0.665404938
C 225.762593 75.6924264 0.626027786
C 225.751101 77.0841403 0.54581514
C 227.019669 73.4796299 0.46718677
C 226.99537 74.9135779 0.521789963
C 228.240062 75.6553178 0.285297515
C 228.25106 77.06852 0.21643597
C 229.516253 73.3976587 0.219277797
C 229.506521 74.8683249 0.174220557
C 230.738239 75.605468 0.0390032455
C 230.698962 77.0309581 -0.127060449
C 232.00183 73.4484915 -0.0799178879
C 231.984894 74.911925 -0.0384872207
C 233.226454 75.5853776 -0.233099545
C 233.208801 76.9982427 -0.373337456
C 234.51643 73.4335871 -0.279226072
C 234.496322 74.8624728 -0.238240584
C 235.755016 75.5752203 -0.421121137
C 235.734533 77.0261512 -0.567863011
C 237.015889 73.4288932 -0.492873897
C 236.971591 74.8470259 -0.621586701
C 238.185279 75.5067323 -0.812474866
C 238.167359 76.9830111 -0.837104991
C 239.481949 73.3560315 -0.698933436
C 239.434728 74.8234815 -0.868544221
C 240.68592 75.5367494 -0.896605429
C 240.702057 76.9493643 -0.94322779
C 241.95868 73.4587873 -0.58792425
C 241.933371 74.8472683 -0.818755962
C 243.21276 75.544224 -0.964561819
C 243.205802 76.9627864 -1.03077922
C 244.45402 73.3597727 -0.796111274
C 244.43347 74.7690278 -0.941520569
C 245.689636 75.5445308 -0.971476238
C 245.664027 77.0251267 -1.01498466
C 246.871076 73.392197 -0.973098656
C 246.913728 74.82783 -1.00498116
C 248.151604 75.5345795 -1.03362438
C 248.171765 76.9792087 -1.11695207
C 249.392636 77.7080786 -1.16423425
C 249.400468 79.1329617 -1.17123332
C 1.26500073 79.8741217 -1.0226842
C 1.27795108 81.3444164 -1.02103955
C 2.46641213 77.7285507 -0.94393715
C 2.50563358 79.1706706 -0.990254495
C 3.7191869 79.911942 -0.98300814
C 3.74945379 81.3125247 -0.97956481
C 4.95842432 77.7601257 -0.785251791
C 4.97994319 79.1777914 -0.876386025
C 6.23987392 79.8948249 -0.917864959
C 6.2471999 81.3775602 -0.981604688
C 7.45021067 77.7792692 -0.637316356
C 7.48161038 79.17957 -0.721984098
C 8.71817488 79.9158249 -0.635467813
C 8.69053423 81.320651 -0.739835087
C 9.9500213 77.7887899 -0.506168863
C 9.9811341 79.2085508 -0.57738292
C 11.2386547 79.908488 -0.663309403
C 11.2106151 81.3179727 -0.784487996
C 12.4413941 77.7255358 -0.516813518
C 12.4436916 79.1546178 -0.634628153
C 13.6395137 79.8753885 -0.653071352
C 13.6650057 81.3735496 -0.727893006
C 14.9575927 77.7790125 -0.629817536
C 14.9181479 79.2224296 -0.639535966
C 16.1272267 79.9249691 -0.659878252
C 16.1353567 81.3296618 -0.722755769
C 17.4877498 77.7457342 -0.706734278
C 17.396805 79.1812039 -0.710896232
C 18.6686373 79.8557356 -0.637413573
C 18.6634715 81.2947198 -0.545079606
C 19.9764853 77.7249237 -0.619646465
C 19.9546717 79.1762757 -0.621033824
C 21.1871103 79.8866581 -0.534568382
C 21.2108229 81.2866119 -0.531660394
C 22.440242 77.7273014 -0.360687432
C 22.4508307 79.1667875 -0.488910265
C 23.7499517 79.8444359 -0.560233197
C 23.7519222 81.3378987 -0.611396622
C 24.9652323 77.7610934 -0.200045283
C 24.9744316 79.1941473 -0.468361324
C 26.2006306 79.8773597 -0.459036226
C 26.1912573 81.3186953 -0.570601841
C 27.4252502 77.7186415 0.0190866961
C 27.458665 79.1658412 -0.236714236
C 28.6846617 79.88405 -0.239433192
C 28.7350497 81.3392532 -0.4399692
C 29.9343504 77.7492806 0.203223069
C 29.9339656 79.2017052 -0.0445764032
C 31.1790863 79.9120976 0.0594487911
C 31.1751844 81.3339997 -0.0521145995
C 32.4320624 77.7509742 0.427186413
C 32.4497159 79.2213908 0.215585278
C 33.6339458 79.9442563 0.206663922
C 33.6796477 81.3663922 0.0307587988
C 34.9164517 77.793778 0.562989368
C 34.8776589 79.2134115 0.317883177
C 36.1950572 79.9176835 0.241966437
C 36.1577108 81.3577041 0.106605062
C 37.466953 77.7849547 0.510977785
C 37.4468397 79.1930862 0.32183369
C 38.7016942 79.9306552 0.178062431
C 38.6897468 81.3993846 0.111237131
C 39.8964883 77.7512768 0.2809632
C 39.9138761 79.2036126 0.238131146
C 41.1577778 79.9141286 0.175152733
C 41.1443724 81.3111059 0.0640750001
C 42.4121506 77.7346877 0.289928906
C 42.3788239 79.1918274 0.182906989
C 43.6308595 79.9287193 0.204413683
C 43.625672 81.3559862 0.0514501405
C 44.8635209 77.8037179 0.433899155
C 44.8668342 79.2231992 0.324907732
C 46.1147598 79.9299899 0.252557152
C 46.1206476 81.3682711 0.118534575
C 47.3629254 77.8030951 0.371918553
C 47.3636865 79.227362 0.433706737
C 48.5682253 79.9243246 0.358988766
C 48.6046795 81.3845406 0.383573548
C 49.8433434 77.7760177 0.223704621
C 49.8619841 79.225857 0.291288247
C 51.1019374 79.9433749 0.253723307
C 51.0342848 81.4186819 0.282418717
C 52.3190243 77.7793906 0.0770823217
C 52.3348969 79.2296666 0.176875791
C 53.5690544 79.9691912 0.188523676
C 53.5726434 81.425489 0.281551737
C 54.8274753 77.7687154 0.090670406
C 54.8507563 79.2142792 0.120391132
C 56.1117547 79.9407212 0.109967549
C 56.1096631 81.4031322 0.183672905
C 57.3185187 77.7825216 0.100273755
C 57.3422842 79.1969127 0.0383697376
C 58.5640468 79.9177483 -0.0251155206
C 58.5915183 81.379238 0.0573528581
C 59.8278909 77.8239273 -0.0382160919
C 59.8526555 79.2486143 -0.0398026062
C 61.119355 79.9489314 -0.107512214
C 61.0819938 81.4339299 0.00527239921
C 62.3616654 77.7736319 -0.202710487
C 62.3761339 79.1805112 -0.180226423
C 63.6468233 79.8940905 -0.0261312781
C 63.5881573 81.3207161 0.167597346
C 64.8993782 77.7448141 -0.0380370507
C 64.8687483 79.17015 0.0489877389
C 66.0934278 79.8730474 0.190467278
C 66.1009125 81.2976346 0.260548623
C 67.390705 77.7154542 0.205462733
C 67.3666614 79.1504458 0.233962375
C 68.5483316 79.8883457 0.343353938
C 68.5684451 81.3304977 0.427998109
C 69.8240162 77.728019 0.219832429
C 69.8036079 79.1900474 0.327390627
C 71.0631997 79.8947149 0.439255974
C 71.0975298 81.3319913 0.465271667
C 72.3381852 77.6879649 0.253626911
C 72.3175902 79.157372 0.431707265
C 73.5881752 79.8470957 0.463801375
C 73.6045325 81.3037507 0.583949436
C 74.8425323 77.6989048 0.229852189
C 74.8226095 79.151048 0.351723391
C 76.0424891 79.8429846 0.387150428
C 76.0816579 81.309977 0.419542612
C 77.3189709 77.7557453 0.16767082
C 77.30982 79.1349198 0.368691138
C 78.5361636 79.8602593 0.453645193
C 78.5711133 81.302488 0.385689147
C 79.8217275 77.6814882 0.235409458
C 79.8436949 79.1464923 0.354905857
C 81.0537237 79.8979209 0.357064704
C 81.0663233 81.3290657 0.31864932
C 82.2638367 77.6818412 0.265007815
C 82.2695375 79.1419998 0.29159852
C 83.4902948 79.8864225 0.140501578
C 83.5136434 81.3325587 0.104872111
C 84.7808526 77.7970305 0.0803569092
C 84.7847392 79.2207115 0.0693729079
C 86.0351514 79.9151228 0.0161998222
C 86.0636074 81.3341065 0.00175630648
C 87.3196104 77.7638942 0.0398086593
C 87.334145 79.176192 -0.000414016506
C 88.5802538 79.91625 0.085744357
C 88.5640483 81.3581295 0.074645168
C 89.8086803 77.7993107 0.0422260613
C 89.8029999 79.2088769 0.101826388
C 91.0311954 79.9174541 0.259795461
C 91.0387135 81.3216106 0.199558058
C 92.2927284 77.7656574 0.211167903
C 92.250699 79.2026896 0.278496606
C 93.5269806 79.8636741 0.281936407
C 93.5560643 81.3294847 0.231341122
C 94.7999237 77.7676444 0.274592924
C 94.7499477 79.1690939 0.258887292
C 96.0217921 79.8673524 0.194316417
C 96.0093034 81.2672788 0.0910769976
C 97.312102 77.712824 0.213596629
C 97.264941 79.1432811 0.246254592
C 98.525786 79.8304133 0.187103902
C 98.5306414 81.282772 0.102342067
C 99.7913336 77.7404875 0.0741882026
C 99.7788899 79.128958 0.102694348
C 101.00127 79.8776209 -0.0285295882
C 101.003825 81.3035764 -0.0511022647
C 102.312376 77.7357891 -0.0262235791
C 102.247202 79.1749724 -0.14753148
C 103.475696 79.8607456 -0.363128544
C 103.507875 81.2701052 -0.311158954
C 104.758048 77.6654386 -0.285299043
C 104.708278 79.1144655 -0.454448427
C 106.015364 79.8619599 -0.473475377
C 106.010277 81.2939167 -0.464068648
C 107.268073 77.6846168 -0.388824889
C 107.261843 79.1076249 -0.48331847
C 108.526892 79.8256532 -0.538066681
C 108.514035 81.3249052 -0.460626217
C 109.798066 77.7108002 -0.460125389
C 109.812468 79.1567937 -0.443071706
C 111.039181 79.8976659 -0.338928546
C 111.002592 81.3122501 -0.394889822
C 112.268692 77.7496393 -0.26250819
C 112.261489 79.1956604 -0.201373879
C 113.486322 79.9262112 -0.129169746
C 113.462163 81.3568841 -0.199687733
C 114.727084 77.7713964 -0.008581421
C 114.723471 79.2332967 0.00589720892
C 116.027727 79.9547426 0.0326654955
C 115.97871 81.3840872 -0.114913131
C 117.228309 77.7758493 0.108199558
C 117.271809 79.2231478 0.113995651
C 118.480569 79.9552126 0.0906616333
C 118.466834 81.4018543 0.0796924656
C 119.769992 77.8171807 0.173696149
C 119.722233 79.2652204 0.120261682
C 121.033269 80.0122283 0.123287549
C 120.998854 81.4622131 0.0331100761
C 122.299412 77.8478028 0.145272846
C 122.280325 79.265428 0.119279818
C 123.519477 79.9944082 -0.00634217975
C 123.492322 81.4428624 -0.144938456
C 124.783406 77.8372965 -0.129159049
C 124.779354 79.2832691 -0.177580306
C 125.970816 79.9289816 -0.443146378
C 126.001646 81.3583608 -0.597697512
C 127.245356 77.7547563 -0.47914307
C 127.19906 79.2091093 -0.57796271
C 128.454256 79.9498527 -0.709574702
C 128.492764 81.382996 -0.69228735
C 129.726728 77.7905979 -0.527031359
C 129.698222 79.224996 -0.598137767
C 130.946881 79.93157 -0.580420082
C 130.975341 81.3690024 -0.62929479
C 132.221988 77.8082553 -0.424206217
C 132.192483 79.2540367 -0.500980344
C 133.499951 79.9468704 -0.516398661
C 133.469325 81.413935 -0.619782405
C 134.701554 77.7661439 -0.328228176
C 134.704458 79.2004139 -0.407587557
C 135.926846 79.9158777 -0.337085179
C 135.896854 81.3776907 -0.42304925
C 137.204101 77.7738364 0.0569865357
C 137.157735 79.2428764 -0.0627176569
C 138.416304 79.986288 -0.0279729507
C 138.406255 81.4132161 -0.154544252
C 139.665311 77.8456206 0.220061135
C 139.668333 79.3004846 0.109542392
C 140.933785 80.0660501 0.112370457
C 140.945191 81.4386909 0.0885095965
C 142.204701 77.8651992 0.269944506
C 142.156318 79.2909408 0.260959875
C 143.367036 80.0092095 0.419653094
C 143.380342 81.4705744 0.379934029
C 144.661543 77.8624464 0.570603215
C 144.633569 79.32565 0.60938453
C 145.896817 80.0274388 0.613604999
C 145.89685 81.4470548 0.597688059
C 147.082402 77.8521496 0.913546027
C 147.115594 79.3094197 0.813558215
C 148.365923 80.023159 0.847939029
C 148.395318 81.4413094 0.718328442
C 149.594126 77.8817015 0.970439324
C 149.629733 79.2659568 0.900145336
C 150.898482 80.0157395 0.873039581
C 150.891143 81.4700885 0.798139359
C 152.092345 77.8507675 0.994149167
C 152.142185 79.280105 0.883693198
C 153.364583 80.0155522 0.63712546
C 153.38202 81.4782903 0.655823233
C 154.638725 77.862623 0.778449098
C 154.609786 79.3187996 0.717248679
C 155.824295 80.0200429 0.668328767
C 155.914602 81.4111186 0.567685024
C 157.116757 77.848497 0.637025439
C 157.093877 79.2809115 0.583240584
C 158.323606 80.0177195 0.463267746
C 158.357742 81.4661157 0.402202927
C 159.627819 77.8392865 0.602183647
C 159.589371 79.2949874 0.490158596
C 160.855805 80.023356 0.4692302
C 160.878481 81.4644007 0.395936497
C 162.101728 77.8481429 0.44664615
C 162.100596 79.2799913 0.417599619
C 163.344244 79.9827001 0.282487685
C 163.331638 81.4021044 0.286377383
C 164.604053 77.7963532 0.363351444
C 164.570353 79.2076393 0.276934282
C 165.851394 79.92205 0.278383897
C 165.813129 81.3936572 0.282595226
C 167.061718 77.7677653 0.16984634
C 167.060692 79.1707893 0.186929936
C 168.324071 79.9121623 0.141900687
C 168.327748 81.3435955 0.158960242
C 169.520442 77.7738157 0.14853811
C 169.5964 79.1633384 0.0766444418
C 170.879122 79.8802973 0.0473163999
C 170.859497 81.3279722 0.0723880644
C 172.044526 77.7450516 0.193371724
C 172.07175 79.1701387 0.112928558
C 173.312123 79.8624347 0.103809682
C 173.370474 81.3234299 0.0830188358
C 174.581321 77.707563 0.174046339
C 174.611736 79.1627131 0.104031468
C 175.899622 79.8713563 0.068226626
C 175.89154 81.3009125 0.12790015
C 177.08458 77.6820726 0.132978022
C 177.119014 79.1444768 0.0926132294
C 178.40208 79.8783474 0.155998245
C 178.385509 81.3068978 0.208253509
C 179.596056 77.6829653 0.187588023
C 179.604779 79.10504 0.175134616
C 180.814861 79.8418162 0.354117321
C 180.846927 81.2986066 0.362991539
C 182.12317 77.6513406 0.446389555
C 182.05676 79.1152618 0.521630758
C 183.301755 79.8080163 0.688937618
C 183.357065 81.3202545 0.607824412
C 184.582102 77.6427752 0.687208925
C 184.555934 79.0878709 0.775836704
C 185.793139 79.8360402 0.820098257
C 185.863243 81.3310193 0.755617227
C 187.056703 77.6503395 0.915533542
C 187.04253 79.1128463 0.81206322
C 188.264809 79.9062249 0.798057178
C 188.33698 81.3157214 0.730915428
C 189.521805 77.6681097 1.07029326
C 189.535623 79.1321716 0.891570819
C 190.820916 79.832377 0.820059017
C 190.794974 81.2919161 0.652926783
C 192.02513 77.6555218 0.956782605
C 192.063368 79.1256695 0.830399398
C 193.321183 79.8653436 0.765714176
C 193.311941 81.2944258 0.675942852
C 194.523794 77.6842925 0.907784097
C 194.527718 79.1078101 0.783589898
C 195.768566 79.8869426 0.819545505
C 195.779825 81.3170354 0.791840932
C 196.972333 77.6899217 1.0068126
C 197.012191 79.1123637 0.911973145
C 198.237872 79.8935902 0.934777181
C 198.286566 81.3161569 0.775022949
C 199.512916 77.670838 1.13009674
C 199.53764 79.1253892 1.051397
C 200.760272 79.8496535 1.04331803
C 200.754135 81.3252185 0.885446513
C 201.999967 77.6814059 1.11051452
C 202.025922 79.1430571 1.08540343
C 203.255804 79.859855 1.04363918
C 203.269681 81.278925 0.973228505
C 204.518128 77.7256748 1.21850719
C 204.529997 79.1729717 1.1185565
C 205.830894 79.8340365 1.04926758
C 205.764119 81.3436179 0.969206248
C 207.114277 77.726637 1.37834301
C 207.070324 79.1476599 1.20892927
C 208.309265 79.9354478 1.22960199
C 208.304741 81.3755212 1.07408498
C 209.622464 77.7716747 1.40456129
C 209.528824 79.1877516 1.34227949
C 210.819025 79.9168498 1.21155371
C 210.79105 81.3562818 1.04986881
C 212.086784 77.6988594 1.35168942
C 212.07926 79.2041767 1.22350911
C 213.326944 79.9118477 1.12337971
C 213.316351 81.3539867 0.90946992
C 214.545003 77.733694 1.15286878
C 214.576745 79.1576561 1.18011472
C 215.806404 79.9544853 1.10690852
C 215.803179 81.4062981 0.900658085
C 217.103245 77.7686235 1.07719928
C 217.028349 79.2212504 1.02495327
C 218.233741 79.9574901 0.816084545
C 218.265118 81.4002444 0.778327663
C 219.504735 77.7624528 0.909547945
C 219.470314 79.2144241 0.709027538
C 220.709021 79.9266623 0.616378023
C 220.767543 81.3433847 0.601851877
C 222.019762 77.754378 0.727850246
C 221.992635 79.2182837 0.613779859
C 223.235346 79.9210465 0.528712825
C 223.212915 81.3444141 0.425397918
C 224.504054 77.7627827 0.609264288
C 224.493166 79.2097897 0.49336028
C 225.724956 79.9241756 0.298040867
C 225.722796 81.3381402 0.198397655
C 226.961763 77.7980013 0.348746715
C 226.97017 79.230371 0.16372863
C 228.227197 79.9384992 0.001122587
C 228.221504 81.3584521 -0.1074423
C 229.475323 77.7781899 -0.0202660648
C 229.463882 79.213012 -0.11503695
C 230.709975 79.9541956 -0.333937446
C 230.682649 81.3652115 -0.420696976
C 231.972616 77.750431 -0.336851559
C 231.943096 79.1671357 -0.464360011
C 233.215557 79.8829944 -0.63220428
C 233.210213 81.3155131 -0.652607496
C 234.476573 77.7325347 -0.499844888
C 234.466296 79.1631644 -0.713662712
C 235.690944 79.8838495 -0.882800236
C 235.673708 81.3285149 -0.876763126
C 236.960285 77.7144931 -0.774270201
C 236.979271 79.1549695 -0.914414275
C 238.240587 79.864019 -1.01010528
C 238.219712 81.3150436 -0.955997295
C 239.443554 77.6657374 -0.934151433
C 239.422773 79.1629237 -1.02974063
C 240.685989 79.8510183 -1.06919394
C 240.688156 81.3347479 -1.09569156
C 241.970585 77.6443818 -1.03005526
C 241.946952 79.1105644 -1.07291138
C 243.202956 79.832244 -1.10778479
C 243.212986 81.2681963 -1.1984696
C 244.403401 77.6991476 -1.07237086
C 244.467008 79.1430584 -1.11240938
C 245.680756 79.867006 -1.14037208
C 245.685656 81.2963372 -1.21263279
C 246.940118 77.707501 -1.07909584
C 246.893838 79.1474926 -1.16968234
C 248.14057 79.9013992 -1.18564873
C 248.159506 81.3710524 -1.24258373
C 0.0162354086 82.0589721 -1.21145676
C 0.0860227335 83.516506 -1.29873091
C 1.34097139 84.2001799 -1.25539497
C 1.28081034 85.6381845 -1.25711266
C 2.5380821 82.0333483 -1.0542496
C 2.55377605 83.4555604 -1.16148408
C 3.79128008 84.1865553 -1.16690889
C 3.79631863 85.677263 -1.28064897
C 4.97769463 82.0259974 -0.961323794
C 5.00953168 83.4773288 -1.06919671
C 6.27246001 84.2021634 -1.09958848
C 6.24049332 85.6811477 -1.15757059
C 7.48806234 82.0358891 -0.931921054
C 7.49189474 83.4636067 -1.06249582
C 8.73192074 84.2122812 -0.972895771
C 8.73956303 85.6422915 -0.98286002
C 9.93470415 82.0642022 -0.756465595
C 9.95465459 83.5138654 -0.835203778
C 11.1709118 84.2280968 -0.796231111
C 11.2003899 85.6706568 -0.721824575
C 12.4201479 82.0895927 -0.827376024
C 12.424959 83.5149234 -0.8045233
C 13.6602418 84.2360543 -0.78482327
C 13.7099714 85.6514161 -0.709054098
C 14.9118931 82.0716412 -0.737533356
C 14.9223011 83.5048662 -0.696651545
C 16.1818582 84.1833051 -0.647978912
C 16.1955695 85.663286 -0.609752213
C 17.4070732 82.0293864 -0.573572291
C 17.4150935 83.4632544 -0.578852788
C 18.7024185 84.1562388 -0.568347352
C 18.6953414 85.6061152 -0.571255425
C 19.9333085 81.965642 -0.589968116
C 19.9091691 83.4045009 -0.619896805
C 21.1433356 84.1758134 -0.708300203
C 21.1347791 85.6277785 -0.699888812
C 22.4563317 82.0475423 -0.551116555
C 22.4211747 83.4474516 -0.715080587
C 23.6667772 84.1922695 -0.710181467
C 23.6582017 85.6235513 -0.752544827
C 24.9425344 82.0376485 -0.665325119
C 24.939792 83.5323431 -0.653911009
C 26.2252925 84.1881676 -0.612646312
C 26.202873 85.6213045 -0.670870917
C 27.4516757 82.0438874 -0.590955845
C 27.4461213 83.4741278 -0.514643563
C 28.6803968 84.2234846 -0.325492905
C 28.6365859 85.6443291 -0.360367077
C 29.9154245 82.0431248 -0.159223215
C 29.8937404 83.4615313 -0.147978224
C 31.1443036 84.2152609 -0.0622493689
C 31.1765817 85.6283093 -0.177227971
C 32.4338902 82.0798078 -0.0297578565
C 32.414757 83.4862496 -0.0326678788
C 33.6941896 84.2028925 -0.165381269
C 33.6880488 85.6286607 -0.309936051
C 34.9028607 82.0512779 0.0320473461
C 34.8918273 83.4852451 -0.121784318
C 36.1540686 84.198426 -0.158184395
C 36.1747472 85.6312433 -0.381436339
C 37.4126322 82.0456966 0.00615765772
C 37.3920427 83.4862546 -0.177790705
C 38.6368023 84.2465867 -0.332118744
C 38.6266556 85.6621274 -0.450326818
C 39.9401757 82.0749037 -0.0316299353
C 39.85973 83.528999 -0.247281244
C 41.1204742 84.2375575 -0.275259611
C 41.1052093 85.7092842 -0.283120955
C 42.3937987 82.0560817 -0.0508713889
C 42.389055 83.5207521 -0.202382292
C 43.6384073 84.2343462 -0.242137381
C 43.6049951 85.6831666 -0.324876404
C 44.9020258 82.1498066 -0.0559148244
C 44.8852362 83.5721688 -0.0842329234
C 46.1446563 84.2845261 -0.000573189096
C 46.1599966 85.7319174 -0.0451007068
C 47.3756334 82.0951669 0.208315861
C 47.3390518 83.5464672 0.192231629
C 48.5780673 84.2699968 0.268030093
C 48.5815244 85.7546078 0.238700673
C 49.8239902 82.1844606 0.39063882
C 49.8088376 83.5942391 0.384096899
C 51.0383815 84.2922364 0.382667649
C 51.071416 85.7047882 0.347367951
C 52.3295911 82.1333105 0.337176146
C 52.3396979 83.57288 0.435838442
C 53.5529576 84.2850671 0.333958106
C 53.5789333 85.7445997 0.281316545
C 54.8398906 82.113923 0.250765288
C 54.8568735 83.5750546 0.237254799
C 56.1176799 84.2683266 0.149723819
C 56.0964778 85.6912826 0.152322428
C 57.377894 82.113026 0.15150913
C 57.3313631 83.5249556 0.198195764
C 58.547749 84.2337367 0.202896174
C 58.5881463 85.71239 0.182374545
C 59.8346999 82.092737 0.0706683738
C 59.8155276 83.5277031 0.240205309
C 61.0889174 84.2731181 0.213364332
C 61.0938381 85.7167191 0.202025252
C 62.3626902 82.1208241 0.124500308
C 62.3298097 83.5030709 0.131220858
C 63.5469058 84.2228744 0.267250465
C 63.573329 85.6579908 0.335892963
C 64.8396395 82.114602 0.243875799
C 64.8483522 83.5343792 0.257105687
C 66.0600693 84.2314412 0.315397384
C 66.0360066 85.6445797 0.423988388
C 67.3527302 82.0434794 0.339199546
C 67.3084264 83.494284 0.365133454
C 68.5640097 84.2389647 0.530211662
C 68.5618703 85.7120888 0.608350784
C 69.8908406 82.0982808 0.465247775
C 69.8562757 83.5404969 0.617182279
C 71.1235197 84.236727 0.667604103
C 71.0673422 85.7061731 0.69074518
C 72.3653611 82.0099265 0.630239628
C 72.3038713 83.4502367 0.677582491
C 73.6001478 84.1784161 0.771857365
C 73.5361287 85.6636133 0.874676649
C 74.8655575 82.0582204 0.553949172
C 74.8413299 83.4742885 0.730284124
C 76.1268395 84.2030183 0.710308032
C 76.0418624 85.6690973 0.764171602
C 77.3610911 82.03807 0.385867067
C 77.3409333 83.4868607 0.487229828
C 78.5712072 84.1932453 0.354040847
C 78.5163571 85.6525168 0.389816678
C 79.7972627 82.0520101 0.363095336
C 79.8401039 83.4743064 0.299125579
C 81.0655169 84.187706 0.281597973
C 81.0257134 85.6296466 0.298388212
C 82.291737 82.0663717 0.200577717
C 82.3433783 83.4714938 0.237806421
C 83.568004 84.2193759 0.171250124
C 83.5663802 85.6667138 0.143865124
C 84.8256512 82.039754 0.0551449339
C 84.8480242 83.4665753 0.0838566142
C 86.1042426 84.2318118 0.0534111089
C 86.0415646 85.6309977 -0.0741207004
C 87.32248 82.0168509 0.101186486
C 87.319249 83.4430816 0.144145393
C 88.5582754 84.1900417 0.13740753
C 88.5512395 85.6535636 0.0390099415
C 89.7886947 82.0465107 0.0989227304
C 89.8390876 83.4857756 0.117005632
C 91.0820885 84.1827105 0.0451431471
C 91.0628164 85.6157373 0.0364269782
C 92.3139175 82.0204544 0.128536347
C 92.3211533 83.4754099 -0.0100715509
C 93.5076566 84.147789 -0.177731336
C 93.5182428 85.6195783 -0.223791515
C 94.7721994 82.0284561 0.0801203109
C 94.7827746 83.4716624 -0.0859870148
C 96.0277737 84.1588049 -0.226251484
C 96.0240678 85.6161638 -0.392159539
C 97.2935265 82.000516 -0.0333335621
C 97.2739223 83.4155544 -0.157780245
C 98.4825732 84.1763394 -0.224828007
C 98.4736129 85.5897558 -0.452882857
C 99.7715934 82.0366556 0.00935836125
C 99.7540796 83.4346505 -0.132819506
C 100.973538 84.1785001 -0.400885991
C 100.958646 85.6105031 -0.556492297
C 102.247492 82.0361257 -0.231501198
C 102.22165 83.4459349 -0.364709678
C 103.426887 84.1396575 -0.43080492
C 103.429346 85.6132577 -0.560343394
C 104.756704 82.0016509 -0.39440275
C 104.743072 83.4587825 -0.474785228
C 105.977346 84.1722505 -0.594688942
C 105.937213 85.6259876 -0.647903093
C 107.265472 81.9877994 -0.547910783
C 107.261932 83.471216 -0.586638054
C 108.498017 84.2020406 -0.530434717
C 108.496157 85.6293143 -0.508212731
C 109.77478 82.0695654 -0.451481862
C 109.742576 83.5377776 -0.42526575
C 111.000462 84.2664469 -0.387232589
C 110.998876 85.7000029 -0.403953661
C 112.216113 82.0760391 -0.38578132
C 112.218776 83.5044439 -0.296520086
C 113.461465 84.2007262 -0.244821619
C 113.471962 85.6457314 -0.33194423
C 114.739055 82.027341 -0.269893637
C 114.711363 83.4855551 -0.251744212
C 115.955065 84.2152953 -0.22692782
C 115.908927 85.6519014 -0.220874078
C 117.229883 82.0875553 0.0343725273
C 117.204111 83.5166034 -0.109650939
C 118.452625 84.232693 -0.0586941394
C 118.467007 85.6994662 -0.0962491254
C 119.710424 82.1121389 0.0604070448
C 119.697681 83.5346297 0.0162481273
C 120.946728 84.236366 -0.116583039
C 120.972317 85.6383909 -0.21656079
C 122.257446 82.1535148 -0.0861119401
C 122.248855 83.5934736 -0.0659361499
C 123.478086 84.2934991 -0.237226528
C 123.463139 85.6482272 -0.399291391
C 124.708382 82.1165819 -0.45820997
C 124.708747 83.5901729 -0.431601885
C 125.959361 84.2745621 -0.659560786
C 125.979082 85.6954692 -0.687876042
C 127.243021 82.0989584 -0.68395138
C 127.208439 83.5212224 -0.723134865
C 128.464062 84.2671411 -0.778757765
C 128.458622 85.7054073 -0.830042717
C 129.73817 82.0769242 -0.733667772
C 129.698031 83.5252638 -0.812151919
C 130.962234 84.26 -0.886082091
C 130.933555 85.7057255 -0.897488403
C 132.199068 82.1353378 -0.599854647
C 132.223358 83.5820334 -0.7126408
C 133.483322 84.2772056 -0.763794327
C 133.458683 85.7090219 -0.795948434
C 134.70966 82.1013264 -0.474038989
C 134.712273 83.5533988 -0.657317729
C 135.957988 84.2650729 -0.740040837
C 136.01064 85.6577972 -0.859877822
C 137.164677 82.0875093 -0.414642413
C 137.232227 83.5680003 -0.589520843
C 138.465381 84.2496492 -0.601918679
C 138.481807 85.6473152 -0.755743531
C 139.667192 82.1059286 -0.0524366414
C 139.672909 83.5619526 -0.293600003
C 140.949735 84.2649093 -0.378215022
C 140.979171 85.7153804 -0.536475772
C 142.148803 82.1578602 0.1101614
C 142.188476 83.5574406 -0.0797296824
C 143.470803 84.2927002 0.0811707767
C 143.463321 85.752762 -0.0893655722
C 144.619117 82.1859374 0.569175098
C 144.69972 83.605725 0.356492153
C 145.925138 84.3626258 0.362878949
C 145.933104 85.79925 0.289420885
C 147.166787 82.2112761 0.577342063
C 147.185768 83.6005095 0.418415857
C 148.393855 84.3314943 0.446851286
C 148.427655 85.7704409 0.415438229
C 149.634358 82.1516418 0.710724778
C 149.650549 83.5865184 0.565524934
C 150.914972 84.3031886 0.563440418
C 150.88568 85.7460734 0.532330582
C 152.137325 82.1841678 0.73494125
C 152.13221 83.5919117 0.663448972
C 153.361691 84.3104202 0.589516178
C 153.384715 85.7953619 0.56565902
C 154.672722 82.1625374 0.586911281
C 154.680519 83.6212301 0.586218794
C 155.865065 84.3515168 0.522270115
C 155.864726 85.7736377 0.547195169
C 157.085008 82.1783653 0.452800759
C 157.083371 83.6255833 0.4397243
C 158.371583 84.3505476 0.455589811
C 158.324395 85.7494819 0.52550349
C 159.609239 82.1958828 0.388296361
C 159.632281 83.6467839 0.405121752
C 160.886105 84.337812 0.399587849
C 160.862231 85.7799023 0.427157713
C 162.122565 82.1935905 0.36651668
C 162.138971 83.6197983 0.472044061
C 163.398002 84.2876028 0.441725756
C 163.373872 85.7265864 0.292549295
C 164.564421 82.0906387 0.385142267
C 164.604504 83.5163766 0.458379805
C 165.882109 84.2249684 0.386782073
C 165.890625 85.703085 0.345055352
C 167.08736 82.0268391 0.249485745
C 167.111036 83.4613362 0.341889906
C 168.36641 84.2565816 0.24224856
C 168.369155 85.7204161 0.223799666
C 169.618276 82.0306722 0.131880005
C 169.613371 83.4946081 0.189211726
C 170.862975 84.2140049 0.0955868626
C 170.829722 85.6759766 0.0420754865
C 172.120756 81.9982487 0.046728649
C 172.094796 83.4580599 0.0609696607
C 173.347203 84.1592744 0.0835529196
C 173.379373 85.6048611 0.0580819069
C 174.63301 82.0524302 0.167589508
C 174.610693 83.466464 0.0953500963
C 175.88296 84.1836706 0.0389990797
C 175.920839 85.6484295 0.0254620107
C 177.151368 82.0035785 0.135774874
C 177.181442 83.4566314 0.155895044
C 178.441543 84.21055 0.315401525
C 178.400497 85.6172465 0.346918591
C 179.610184 82.0500506 0.301386097
C 179.654951 83.4756388 0.344236567
C 180.887791 84.1643142 0.361419787
C 180.864623 85.615528 0.28827816
C 182.116436 82.0250264 0.47298538
C 182.12659 83.4558235 0.457790823
C 183.354667 84.1744612 0.447127742
C 183.363406 85.6355754 0.367660258
C 184.607015 81.9860312 0.621779794
C 184.598998 83.4249803 0.546242228
C 185.813284 84.1501747 0.569212404
C 185.811888 85.6134235 0.46429343
C 187.096585 82.0629259 0.715811202
C 187.072774 83.4720983 0.594257881
C 188.332007 84.2507791 0.48957378
C 188.313597 85.67537 0.358363099
C 189.567602 82.0126459 0.659329004
C 189.568025 83.4745317 0.510199838
C 190.820887 84.2386535 0.489915151
C 190.783404 85.6781625 0.338896755
C 192.06868 82.0228735 0.574860732
C 192.074974 83.5059105 0.594834006
C 193.318822 84.21666 0.56711205
C 193.339944 85.6135128 0.355013426
C 194.531429 82.0442 0.770238842
C 194.568812 83.4864047 0.65121677
C 195.788206 84.153248 0.504782589
C 195.821708 85.5960386 0.325576871
C 197.022537 82.0093592 0.697181038
C 197.053015 83.4682267 0.557650793
C 198.276097 84.2124386 0.553435975
C 198.299963 85.5777177 0.36227731
C 199.509417 82.0065741 0.721743892
C 199.52974 83.4698979 0.632685186
C 200.787408 84.1369744 0.556038068
C 200.746491 85.5808948 0.415239872
C 202.023839 81.9976314 0.911438575
C 202.028637 83.4258251 0.668265036
C 203.284464 84.1150351 0.653534237
C 203.24149 85.5652081 0.542210355
C 204.506204 81.9591732 0.948257057
C 204.486773 83.4089554 0.765087976
C 205.780046 84.1323593 0.702938222
C 205.769682 85.5954283 0.505553306
C 207.007765 82.0628326 0.949826031
C 207.068373 83.4648646 0.849959978
C 208.307738 84.2299766 0.765963448
C 208.261142 85.6697784 0.572813386
C 209.539541 82.109869 1.01919872
C 209.569649 83.5006915 0.838387606
C 210.793208 84.1972353 0.65771365
C 210.794951 85.6829493 0.644418
C 212.040162 82.0983405 0.841551091
C 212.061817 83.4914691 0.765840521
C 213.33931 84.2196274 0.689292466
C 213.27327 85.6712506 0.609766686
C 214.532542 82.1091539 0.855414212
C 214.551418 83.5266917 0.787309693
C 215.807453 84.2670815 0.633617135
C 215.768563 85.6753649 0.498505341
C 217.026732 82.1189911 0.740195063
C 217.001259 83.5489602 0.723799473
C 218.224908 84.2462406 0.647042143
C 218.248291 85.6550597 0.515698312
C 219.520836 82.1074206 0.652566043
C 219.475008 83.5348233 0.574602672
C 220.714628 84.2423355 0.457964084
C 220.777037 85.6485836 0.289148702
C 221.998415 82.0986189 0.525794747
C 221.962871 83.5267192 0.418637826
C 223.228875 84.1781994 0.166179689
C 223.257638 85.6252833 0.0217693958
C 224.468684 82.0747175 0.199016575
C 224.435478 83.4727872 -0.00340775036
C 225.701105 84.1532156 -0.212761571
C 225.709995 85.5961656 -0.381117785
C 226.934964 82.0698951 0.00194381293
C 226.975559 83.4624461 -0.280514345
C 228.164734 84.1788528 -0.538210251
C 228.221701 85.6372184 -0.719030356
C 229.462088 82.0552848 -0.373032036
C 229.457856 83.466616 -0.471365326
C 230.751836 84.2044459 -0.638162597
C 230.715323 85.6287505 -0.764958029
C 231.98145 82.0252658 -0.605080155
C 231.969918 83.47358 -0.63497075
C 233.239895 84.218758 -0.718158053
C 233.231269 85.6457683 -0.908652134
C 234.416722 82.070467 -0.751038555
C 234.470757 83.5399444 -0.75050279
C 235.721307 84.222905 -0.845309837
C 235.743753 85.6290421 -0.898942277
C 236.923659 82.0542476 -0.852473892
C 236.96299 83.5161624 -0.818728569
C 238.221465 84.1961843 -1.01542617
C 238.225071 85.6287093 -1.04600247
C 239.466262 82.0415329 -1.04337507
C 239.454377 83.4725957 -1.00585331
C 240.734733 84.156238 -1.05941786
C 240.70975 85.5788417 -0.98291806
C 241.955861 82.0054911 -1.13045717
C 241.995395 83.4429811 -1.15365594
C 243.226366 84.1881027 -1.16029884
C 243.198156 85.6093288 -1.03964921
C 244.420953 82.046059 -1.20454853
C 244.403095 83.4617541 -1.20523944
C 245.6739 84.2176533 -1.30847124
C 245.700598 85.6565768 -1.25220199
C 246.932899 82.0393568 -1.26041876
C 246.958555 83.5194752 -1.37285052
C 248.223403 84.2192461 -1.29930265
C 248.207544 85.6555836 -1.34539156
C 0.00757897517 86.3745689 -1.22577105
C 0.0377084365 87.818033 -1.25438677
C 1.25202037 88.5266988 -1.30947722
C 1.25574804 89.9746009 -1.43268003
C 2.51243864 86.3811229 -1.3041507
C 2.47871916 87.8182096 -1.27092696
C 3.7439715 88.5403405 -1.32798523
C 3.73376691 89.955033 -1.37133621
C 5.02319447 86.3946176 -1.24851517
C 5.02007208 87.8324561 -1.26329522
C 6.24277084 88.5969176 -1.27920039
C 6.19632862 90.0001734 -1.38018062
C 7.49695674 86.3452053 -1.07090489
C 7.49717118 87.8237137 -1.13421749
C 8.71911913 88.547458 -1.09992815
C 8.72389884 89.9710587 -1.17129573
C 9.97189649 86.3581282 -0.798712851
C 9.97776286 87.8178598 -0.916558906
C 11.2578741 88.5094961 -0.933233412
C 11.2112676 89.9612001 -0.950793802
C 12.4563084 86.3402646 -0.650674582
C 12.4784538 87.7753543 -0.77864986
C 13.6955521 88.5579891 -0.755939984
C 13.7237231 89.9870652 -0.798865133
C 14.9159141 86.3701696 -0.699006362
C 14.9197727 87.8058411 -0.73332338
C 16.1546548 88.4989291 -0.743937555
C 16.1720798 89.9647191 -0.891087809
C 17.4284483 86.3368267 -0.517321181
C 17.3769288 87.7980666 -0.73353948
C 18.6649668 88.5238413 -0.83784401
C 18.6157374 90.0369412 -0.825730689
C 19.8973719 86.395137 -0.71803099
C 19.9287332 87.859255 -0.827683538
C 21.1706675 88.5465934 -0.821691867
C 21.1757166 90.0015489 -0.762256263
C 22.396527 86.3513704 -0.740038839
C 22.4238218 87.8113019 -0.791851098
C 23.7084179 88.546255 -0.791928996
C 23.6688057 89.9683266 -0.781111719
C 24.926721 86.3453513 -0.845053331
C 24.9638486 87.7915132 -0.806754355
C 26.1725009 88.5077174 -0.826148424
C 26.1120867 89.9709719 -0.964926743
C 27.4446998 86.3858684 -0.555920129
C 27.4186353 87.8030796 -0.690010266
C 28.6706619 88.552978 -0.787226568
C 28.6527705 89.9446474 -1.00396509
C 29.9181868 86.3652712 -0.329283038
C 29.9081914 87.7727141 -0.65097926
C 31.1725389 88.4878199 -0.642990916
C 31.1372515 89.9112499 -0.884563443
C 32.4279404 86.3118326 -0.32183127
C 32.444676 87.7872995 -0.517369843
C 33.701245 88.473943 -0.63086699
C 33.6616567 89.9148692 -0.794818531
C 34.9194171 86.33171 -0.38031205
C 34.9503162 87.7797041 -0.510312158
C 36.165521 88.4644218 -0.628407758
C 36.1501242 89.9267071 -0.70955867
C 37.3991512 86.3487654 -0.566880414
C 37.4118419 87.751771 -0.637905638
C 38.6763977 88.5231324 -0.574452357
C 38.6574253 89.9522649 -0.604548744
C 39.8703168 86.4111524 -0.431548885
C 39.9398136 87.8390688 -0.447580499
C 41.1879035 88.5319557 -0.464741334
C 41.1375097 90.0221385 -0.497636422
C 42.3662344 86.3876957 -0.355271993
C 42.4054719 87.8361119 -0.415270137
C 43.627522 88.5744438 -0.334487172
C 43.5996452 90.0572589 -0.404560136
C 44.8561918 86.3926501 -0.271979584
C 44.8745619 87.8698735 -0.216072491
C 46.1285907 88.6338401 -0.160407307
C 46.1297174 90.0290184 -0.258243106
C 47.3907611 86.4598661 0.0582382332
C 47.3632024 87.9147911 -0.0490789324
C 48.5964871 88.602032 -0.0198501232
C 48.6517797 90.0658139 -0.00724954183
C 49.8887575 86.4521759 0.241245026
C 49.8580528 87.8754366 0.110527492
C 51.0962765 88.5991888 0.0937306485
C 51.0631668 90.0157517 0.0849654619
C 52.3204102 86.4611852 0.279591749
C 52.3074597 87.8229911 0.149838934
C 53.5489266 88.5830099 0.111005504
C 53.574518 89.9955395 0.102502146
C 54.8333552 86.4393364 0.189250663
C 54.8456786 87.8686693 0.243872591
C 56.1101497 88.5874649 0.279876653
C 56.0943435 90.0283335 0.129689926
C 57.3477647 86.4367498 0.218565761
C 57.3358732 87.8595512 0.298555531
C 58.5991761 88.573446 0.221281485
C 58.6025485 89.9719681 0.192398596
C 59.8296407 86.4042056 0.164186458
C 59.8068885 87.8719689 0.156624143
C 61.0817752 88.5863864 0.113994283
C 61.0829678 90.0018845 0.0669088521
C 62.3383287 86.4458729 0.182846614
C 62.3450088 87.8899104 0.127724616
C 63.5927282 88.62129 0.196032164
C 63.5813801 90.0546433 0.134161382
C 64.8173117 86.393557 0.406344202
C 64.828432 87.8321192 0.275677224
C 66.0596664 88.5265841 0.337180821
C 66.0543839 90.0168099 0.25735034
C 67.31779 86.3980881 0.490443096
C 67.2842314 87.8649202 0.519737888
C 68.5643311 88.5555411 0.568684039
C 68.5691583 89.9896237 0.499776627
C 69.7933695 86.4026489 0.668111827
C 69.8255806 87.8033164 0.64037504
C 71.0500213 88.5784046 0.63033585
C 71.057294 89.9737624 0.551079755
C 72.3327107 86.4106447 0.759872573
C 72.3290917 87.8850469 0.698812933
C 73.5553445 88.5773055 0.666269556
C 73.5384007 89.9869457 0.543403492
C 74.7792728 86.4043482 0.830041686
C 74.7976643 87.8420199 0.703330609
C 76.0535586 88.5227969 0.568309371
C 76.0334449 89.9780892 0.461406579
C 77.3152374 86.3593796 0.562958409
C 77.3097698 87.7686732 0.510736015
C 78.5606883 88.5013558 0.428258891
C 78.5419285 89.9280762 0.426009107
C 79.7487765 86.3523114 0.375112793
C 79.8032261 87.7832165 0.451405114
C 81.0730041 88.4707523 0.373143197
C 81.0605674 89.9086552 0.374725976
C 82.2804565 86.3328766 0.240901257
C 82.2782178 87.7986032 0.267748507
C 83.5152225 88.5180368 0.188830802
C 83.541578 89.9662252 0.236644548
C 84.7904917 86.3752743 0.0825911962
C 84.7581644 87.7829254 0.131891643
C 85.9935121 88.5042375 0.0237959625
C 86.0103985 89.9489997 0.127198391
C 87.2942664 86.3727639 -0.0361417954
C 87.2679097 87.8128639 -0.0230610523
C 88.5277107 88.5507518 0.0360398471
C 88.5522865 89.9703069 0.0750504718
C 89.7927411 86.3824653 0.0790140163
C 89.797906 87.8146001 0.0507046869
C 91.0688605 88.5015692 -0.0654507738
C 91.067677 89.9605175 -0.158169482
C 92.2752656 86.3144262 -0.0923572549
C 92.309372 87.7688057 -0.160980094
C 93.5461556 88.467234 -0.385390146
C 93.5537115 89.947193 -0.329679824
C 94.7887273 86.3408808 -0.353406945
C 94.7809608 87.7686555 -0.414732075
C 96.0296007 88.4818431 -0.499345043
C 96.0613542 89.9587455 -0.469956616
C 97.2602314 86.3269602 -0.508516036
C 97.2543363 87.7518427 -0.539203951
C 98.4750424 88.5039676 -0.639958984
C 98.4816601 89.9496587 -0.653412188
C 99.7215113 86.3188012 -0.603733563
C 99.7399914 87.7560988 -0.663921586
C 101.002559 88.5232156 -0.738310603
C 100.96502 89.9131099 -0.7860847
C 102.183148 86.3734248 -0.590570226
C 102.220474 87.8194382 -0.632172366
C 103.491972 88.5327703 -0.72293603
C 103.463306 90.0044908 -0.786228498
C 104.667005 86.3461272 -0.628288139
C 104.717986 87.7664363 -0.671566971
C 105.964837 88.5165334 -0.751257206
C 105.962312 89.9972884 -0.741376803
C 107.200571 86.3472098 -0.62765968
C 107.204595 87.7569513 -0.752436862
C 108.438604 88.4867502 -0.745942449
C 108.442969 89.9495899 -0.785836896
C 109.731931 86.3723561 -0.494457969
C 109.702472 87.788575 -0.659399558
C 110.990874 88.5221049 -0.683308714
C 110.991548 89.951641 -0.619404923
C 112.225852 86.3826065 -0.388720575
C 112.188844 87.8193819 -0.474638447
C 113.416759 88.5168729 -0.356175599
C 113.415874 89.9683377 -0.289127639
C 114.67737 86.3675927 -0.287761034
C 114.677988 87.7928164 -0.324319484
C 115.908601 88.5548982 -0.24261529
C 115.889108 90.0386938 -0.282366775
C 117.20663 86.3725902 -0.170729861
C 117.179623 87.8536481 -0.2903606
C 118.479774 88.5382904 -0.342194729
C 118.438957 89.9960723 -0.317710954
C 119.712902 86.3731212 -0.167179929
C 119.705536 87.8245594 -0.219727194
C 121.021794 88.5339574 -0.32356288
C 121.004088 90.0053986 -0.373189134
C 122.226772 86.3842708 -0.316812534
C 122.250442 87.7760051 -0.37801875
C 123.448769 88.5561513 -0.447148754
C 123.482534 90.0021583 -0.53336341
C 124.703678 86.4066488 -0.608311049
C 124.755153 87.8429029 -0.568679564
C 125.965793 88.5890082 -0.633284205
C 125.976437 90.0012941 -0.679397974
C 127.213609 86.4078719 -0.765165762
C 127.226211 87.8765126 -0.725103612
C 128.475175 88.5752972 -0.823502886
C 128.455414 90.042539 -0.874873099
C 129.731145 86.4216771 -0.865778613
C 129.677279 87.8728946 -0.910771
C 130.96731 88.5920871 -1.07102785
C 130.986365 90.0323153 -1.11189066
C 132.211426 86.4314581 -0.905014231
C 132.222215 87.858874 -1.02029031
C 133.443712 88.6063773 -1.08214398
C 133.481125 90.040332 -1.20089552
C 134.735174 86.3983675 -0.87181008
C 134.718535 87.8722933 -1.11561249
C 135.935083 88.5601086 -1.1183708
C 135.946431 90.0425765 -1.20714209
C 137.25278 86.3538944 -0.866799552
C 137.228057 87.8578836 -1.00705154
C 138.445265 88.5815217 -0.982362565
C 138.436247 90.0040922 -1.00342759
C 139.759209 86.4273058 -0.749254351
C 139.7005 87.8883404 -0.832728079
C 140.931425 88.5824699 -0.641846456
C 140.941646 90.0005811 -0.70119529
C 142.170511 86.4248637 -0.340602162
C 142.190005 87.9103223 -0.457398753
C 143.490972 88.5952911 -0.397646932
C 143.513074 90.010737 -0.544103304
C 144.731877 86.5183536 0.00558077228
C 144.734664 87.909031 -0.187020481
C 145.969632 88.6025366 -0.128605857
C 145.951635 90.0572643 -0.319981579
C 147.18706 86.494018 0.319078376
C 147.192147 87.9637359 0.151658101
C 148.428371 88.6648654 0.19584728
C 148.393095 90.0912038 -0.027655548
C 149.662279 86.4475062 0.385574516
C 149.679343 87.9240718 0.306140198
C 150.9016 88.6537999 0.39018212
C 150.890563 90.078308 0.211589049
C 152.151976 86.439266 0.518213802
C 152.152862 87.9040909 0.413130517
C 153.411021 88.6354488 0.371629328
C 153.431971 90.0599777 0.263130263
C 154.6467 86.5387734 0.582266181
C 154.664037 87.9084575 0.531505528
C 155.905407 88.6872335 0.505861229
C 155.899785 90.0910364 0.371336091
C 157.121605 86.5199838 0.516583852
C 157.16664 87.9612284 0.439041968
C 158.396669 88.6715595 0.403866174
C 158.42234 90.0789155 0.341267191
C 159.600505 86.4596324 0.445629573
C 159.622921 87.9438729 0.32134144
C 160.863799 88.6319581 0.239164729
C 160.937278 90.0835645 0.212558785
C 162.142047 86.4842668 0.325586411
C 162.12163 87.930003 0.243222788
C 163.366944 88.6333772 0.233444498
C 163.387613 90.07155 0.249264031
C 164.627622 86.4400067 0.295418016
C 164.591134 87.9111635 0.195609969
C 165.879811 88.5864076 0.230250156
C 165.893798 89.995377 0.101018824
C 167.116815 86.4222934 0.298416069
C 167.107627 87.8956814 0.221022889
C 168.377539 88.5505946 0.0490519261
C 168.37069 90.0035672 -0.12737302
C 169.634629 86.3946895 0.15673345
C 169.653093 87.8547679 0.0158298491
C 170.885523 88.4862773 -0.118968899
C 170.901653 89.9336065 -0.309186277
C 172.120354 86.3350019 -0.0180886101
C 172.150766 87.7936096 -0.160316308
C 173.39863 88.472773 -0.217778588
C 173.417079 89.9067419 -0.236607813
C 174.632737 86.3344213 -0.017029596
C 174.65227 87.7831081 -0.125323806
C 175.930606 88.5343939 -0.099594503
C 175.959812 89.9542782 -0.101327459
C 177.162934 86.3519595 0.152398024
C 177.190078 87.7675741 0.0765016142
C 178.42718 88.491977 0.21934568
C 178.378579 89.9420991 0.257568484
C 179.641991 86.302554 0.275258786
C 179.62727 87.7455642 0.264488403
C 180.867578 88.4304837 0.210462496
C 180.885929 89.8865605 0.205178681
C 182.151625 86.3518077 0.342611537
C 182.124426 87.77711 0.265846415
C 183.321556 88.5066451 0.202052068
C 183.323434 89.9101393 0.0681663367
C 184.618552 86.335168 0.357445718
C 184.593438 87.7652182 0.288938533
C 185.791171 88.534464 0.203757495
C 185.795957 89.9078621 0.139126965
C 187.069704 86.3379739 0.304678788
C 187.054381 87.8067393 0.225579408
C 188.353161 88.5496943 0.204774237
C 188.348704 89.9587631 0.203820329
C 189.556071 86.4027303 0.206194168
C 189.550485 87.8127475 0.234596372
C 190.803158 88.5532129 0.247519391
C 190.812529 89.9429582 0.161424372
C 192.073496 86.3995189 0.3332443
C 192.067041 87.8503988 0.275347125
C 193.351365 88.509916 0.155272477
C 193.359883 89.9397866 0.101680368
C 194.605334 86.324891 0.263711996
C 194.591569 87.8127751 0.170510803
C 195.850952 88.4776212 0.0949629076
C 195.847749 89.9344197 -0.030412419
C 197.061139 86.3390052 0.222349412
C 197.061259 87.730227 0.154776551
C 198.297237 88.3995316 0.122999735
C 198.249037 89.8623022 0.0972261351
C 199.528946 86.3408862 0.336632618
C 199.548064 87.7494932 0.267399438
C 200.780329 88.4838403 0.351668878
C 200.762483 89.9038228 0.227278846
C 201.992651 86.3335925 0.503097839
C 202.014936 87.7579384 0.453831023
C 203.243612 88.422383 0.299157415
C 203.228416 89.8819669 0.243370712
C 204.517297 86.261786 0.477437914
C 204.49757 87.7411728 0.383764831
C 205.737817 88.4677565 0.27840835
C 205.721553 89.8834682 0.248602915
C 207.021799 86.3391015 0.479115578
C 207.003714 87.8227912 0.407280843
C 208.230743 88.53304 0.3636836
C 208.209448 89.916247 0.23330288
C 209.538342 86.4143072 0.564203435
C 209.515192 87.8678319 0.453908002
C 210.802513 88.5635848 0.329336858
C 210.773057 89.9684795 0.130706092
C 212.045258 86.3934925 0.592981528
C 212.010624 87.8099983 0.42622062
C 213.23127 88.4956896 0.236636405
C 213.256417 89.9133472 0.0784019465
C 214.543497 86.3696596 0.482474857
C 214.510837 87.7853499 0.312163313
C 215.744232 88.5024966 0.304410688
C 215.774791 89.9704583 0.16455793
C 217.001919 86.3784221 0.485282363
C 217.004307 87.8375002 0.343479717
C 218.237562 88.4967167 0.248870482
C 218.267971 89.9996983 0.208554893
C 219.50535 86.3668874 0.34953064
C 219.540807 87.8239296 0.284287047
C 220.804832 88.5332076 0.137465747
C 220.804331 89.9476504 0.109663888
C 222.028727 86.3599942 0.0797878881
C 221.978006 87.8008479 -0.0574189991
C 223.22046 88.4819527 -0.237766767
C 223.244423 89.9011815 -0.283856941
C 224.506292 86.32443 -0.222738402
C 224.458998 87.7323478 -0.279022471
C 225.710969 88.5078545 -0.457537536
C 225.729384 89.8873155 -0.505143777
C 226.970854 86.3816924 -0.603017369
C 226.924231 87.7521769 -0.638064377
C 228.171865 88.478676 -0.848620579
C 228.172148 89.9242625 -0.816182894
C 229.445878 86.3280661 -0.78528524
C 229.452222 87.8022514 -0.891959026
C 230.707139 88.5312428 -0.982521888
C 230.66412 89.9380123 -0.937214947
C 231.938386 86.3584387 -0.917256484
C 231.93143 87.7907081 -1.0564893
C 233.199277 88.508486 -1.13067094
C 233.14889 89.9169835 -1.13498956
C 234.476765 86.3767123 -0.938986998
C 234.422893 87.8141128 -1.04430917
C 235.677921 88.502935 -1.07167357
C 235.654665 89.9328607 -1.13003014
C 236.979973 86.373699 -0.907579264
C 236.907652 87.8026749 -1.01226246
C 238.195054 88.4685331 -1.14496627
C 238.18898 89.9225686 -1.0769869
C 239.508208 86.3268118 -1.13131041
C 239.463399 87.7249017 -1.12871835
C 240.694561 88.4394339 -1.02648104
C 240.677089 89.8979675 -0.890920867
C 241.961478 86.3230042 -0.961565599
C 241.978163 87.773936 -1.02021938
C 243.200838 88.534099 -1.07783233
C 243.208044 89.953293 -1.02655511
C 244.43157 86.3286095 -1.17039073
C 244.449907 87.7886934 -1.15932213
C 245.674149 88.4691994 -1.20560628
C 245.685814 89.9304565 -1.14177878
C 246.934438 86.3919989 -1.29580838
C 246.940855 87.8140229 -1.22706424
C 248.180843 88.5469701 -1.26716053
C 248.138706 89.9769759 -1.34957503
C 249.389163 90.6991148 -1.39566799
C 249.364543 92.153276 -1.39145949
C 1.2324204 92.8463274 -1.36951448
C 1.22831729 94.2779667 -1.41005404
C 2.48099493 90.7108558 -1.40212698
C 2.45396067 92.1232512 -1.34507314
C 3.71045091 92.8114494 -1.28425804
C 3.76813114 94.2803032 -1.22464353
C 4.94783393 90.7104757 -1.38087816
C 4.9936092 92.1301263 -1.23255917
C 6.2558147 92.8624066 -1.16920199
C 6.23062086 94.2949466 -1.08438458
C 7.44867804 90.7065905 -1.27543357
C 7.48588643 92.1341516 -1.14994964
C 8.74464001 92.8203259 -1.01337944
C 8.71724214 94.2469902 -0.95439617
C 10.0152066 90.6776741 -0.991664084
C 10.0108579 92.1129975 -0.944424346
C 11.238379 92.873756 -0.982007034
C 11.1989312 94.2992004 -0.915854725
C 12.4789693 90.7118861 -0.867275562
C 12.4830926 92.1837135 -0.935833148
C 13.737897 92.8691961 -1.049584
C 13.7302536 94.3132475 -1.07212286
C 14.9687279 90.6940855 -0.91325362
C 14.9547694 92.1020921 -1.06818343
C 16.2167237 92.8715084 -1.20979709
C 16.2530711 94.3419301 -1.18121916
C 17.3888703 90.7137847 -0.976148153
C 17.4375991 92.1486575 -1.10569773
C 18.6826453 92.8881914 -0.919684095
C 18.7118107 94.3452372 -0.996270373
C 19.8869582 90.7339333 -0.729256944
C 19.9336292 92.1735865 -0.711026756
C 21.1548284 92.8970725 -0.712360187
C 21.1671085 94.2937604 -0.799309347
C 22.4368128 90.6905914 -0.791359736
C 22.4330364 92.1250273 -0.804404027
C 23.6643587 92.8436568 -0.981870712
C 23.6978646 94.2967439 -1.0627912
C 24.9084307 90.7101907 -0.894776712
C 24.8945413 92.1417036 -1.00645485
C 26.1290812 92.8659882 -1.17855003
C 26.186012 94.298036 -1.35732343
C 27.377608 90.6679143 -1.08495615
C 27.3883957 92.1390615 -1.21912727
C 28.6662428 92.8333197 -1.38611147
C 28.6785206 94.2914303 -1.46201459
C 29.8832441 90.6993617 -1.05847061
C 29.983249 92.1475763 -1.20510067
C 31.2099934 92.873197 -1.17034701
C 31.1945365 94.3124127 -1.24953799
C 32.3744944 90.6642393 -0.923351348
C 32.4160724 92.130833 -1.0632869
C 33.6625276 92.8237366 -1.0033196
C 33.6841084 94.2608791 -1.03404366
C 34.9172786 90.6722708 -0.784154994
C 34.898561 92.1042708 -0.888058548
C 36.1579654 92.8516482 -0.862307275
C 36.1250184 94.270752 -0.929948467
C 37.4006398 90.6432551 -0.644019877
C 37.4093826 92.1382976 -0.662685634
C 38.666687 92.8602967 -0.631436043
C 38.6964073 94.2607993 -0.766399276
C 39.9168179 90.7318673 -0.508731364
C 39.8956978 92.1702337 -0.572474967
C 41.1870401 92.8743503 -0.607928683
C 41.1770259 94.2910598 -0.646821783
C 42.3962009 90.7417356 -0.451901516
C 42.3977814 92.1810229 -0.578808023
C 43.665563 92.8829816 -0.445756961
C 43.5922214 94.3208534 -0.417451814
C 44.9006311 90.7385974 -0.338972434
C 44.915124 92.1415054 -0.347620834
C 46.1504297 92.834061 -0.347461139
C 46.1212603 94.3638206 -0.442270705
C 47.4137429 90.7647458 -0.227870388
C 47.409905 92.2122264 -0.37556461
C 48.6471635 92.9595294 -0.427288972
C 48.6490663 94.400243 -0.489312947
C 49.8761496 90.7893746 -0.0611390677
C 49.8943309 92.2318246 -0.265238892
C 51.1759676 92.9486432 -0.350893102
C 51.150859 94.3560983 -0.461232642
C 52.3339833 90.7420594 0.0122566745
C 52.3930488 92.1982132 -0.246455861
C 53.6043458 92.8702937 -0.251006163
C 53.7023077 94.325038 -0.372128397
C 54.8118322 90.739836 0.0487044241
C 54.8697476 92.2064797 -0.071141549
C 56.1472931 92.8836629 -0.111236012
C 56.1896107 94.3159488 -0.190728904
C 57.3513011 90.7366076 0.112949189
C 57.3962045 92.131746 -0.0613944746
C 58.6403402 92.871098 -0.0357314486
C 58.6622213 94.2994019 -0.0731496471
C 59.8543693 90.7209088 0.12730182
C 59.8628446 92.1482436 0.0178506894
C 61.1185359 92.8695631 0.0584829074
C 61.1709103 94.3222619 0.0151116696
C 62.3480769 90.7529834 0.08043375
C 62.3209705 92.1882744 0.105460344
C 63.5741997 92.9268384 0.0695273999
C 63.6152956 94.3165212 0.0232514705
C 64.8371539 90.7708151 0.181099347
C 64.8342368 92.2036529 0.0902841099
C 66.0342812 92.9025283 0.166341742
C 66.0853105 94.3142525 -0.00451906319
C 67.312383 90.7943701 0.350588441
C 67.3399597 92.2226465 0.200263638
C 68.5746159 92.9491013 0.205723972
C 68.5797127 94.3265324 -0.011237395
C 69.800843 90.7164301 0.491053834
C 69.8050607 92.1602216 0.260737287
C 71.0360269 92.8842621 0.188440842
C 71.0456534 94.2888745 -0.014682078
C 72.2718712 90.730333 0.461066057
C 72.258436 92.1788769 0.395494424
C 73.5720755 92.8267823 0.344038154
C 73.5540754 94.2784165 0.130084393
C 74.821814 90.6630353 0.484055332
C 74.8096875 92.098819 0.361900238
C 76.0233574 92.8575428 0.246952711
C 76.0264193 94.2923571 0.0179409189
C 77.2916496 90.6777688 0.389962039
C 77.3459987 92.1376495 0.29384742
C 78.5523949 92.8821613 0.200598321
C 78.5466645 94.2858839 0.0544061991
C 79.7778913 90.6766142 0.395546077
C 79.7886404 92.1136494 0.28164802
C 81.0154635 92.7956031 0.296532319
C 81.022755 94.2496899 0.256986713
C 82.2600761 90.6679635 0.328448579
C 82.2446812 92.1337175 0.300756229
C 83.558986 92.8312051 0.285740237
C 83.4775233 94.2571772 0.266716855
C 84.759199 90.6611977 0.225985597
C 84.7947708 92.1214886 0.20630432
C 86.0581371 92.8513374 0.182352837
C 86.0198315 94.2568408 0.118927021
C 87.2536706 90.6798194 0.0830107017
C 87.2828877 92.1530904 0.104549931
C 88.5159403 92.7962748 0.0190146445
C 88.561518 94.2240889 0.100503585
C 89.7538694 90.6643082 -0.0494553214
C 89.7512633 92.0958773 -0.0556922011
C 91.0107281 92.831858 -0.0572452662
C 91.0097899 94.2942322 0.0311870915
C 92.3149223 90.7113735 -0.292607341
C 92.2887437 92.1215826 -0.161302711
C 93.5144967 92.7933705 -0.249629888
C 93.4709076 94.2563617 -0.220174045
C 94.7950716 90.6812209 -0.387529796
C 94.7457066 92.1111245 -0.348684731
C 96.0137027 92.8217239 -0.41736264
C 95.9948566 94.2644519 -0.346414863
C 97.3010492 90.6931293 -0.530956896
C 97.2834285 92.1048099 -0.466508486
C 98.5402303 92.8855611 -0.474881832
C 98.4746498 94.2686546 -0.380155966
C 99.7439743 90.6689076 -0.63223763
C 99.7563537 92.1222737 -0.554522036
C 100.970901 92.8357564 -0.564628593
C 100.981871 94.278077 -0.394034782
C 102.21691 90.7116773 -0.838258081
C 102.215343 92.1519729 -0.712105242
C 103.50867 92.8241662 -0.63657126
C 103.515283 94.2916067 -0.500776206
C 104.70762 90.7207948 -0.775349202
C 104.768464 92.1278435 -0.756744031
C 105.980057 92.8495313 -0.693906922
C 106.019317 94.2888699 -0.486226735
C 107.220005 90.7030241 -0.814428795
C 107.223967 92.1442566 -0.705877019
C 108.482882 92.8628948 -0.584230199
C 108.496505 94.3148006 -0.537511582
C 109.714062 90.6825744 -0.694830558
C 109.690596 92.1316962 -0.611047554
C 110.960513 92.8654683 -0.596849569
C 110.951463 94.3140763 -0.648234327
C 112.221667 90.7306562 -0.388637659
C 112.223881 92.1634348 -0.430347938
C 113.439835 92.9271744 -0.325895425
C 113.469688 94.3685366 -0.342473788
C 114.627515 90.7122596 -0.224473891
C 114.687859 92.1634543 -0.207224454
C 115.908575 92.9147918 -0.133365729
C 115.930615 94.3351876 -0.0457711799
C 117.190932 90.7192766 -0.269203292
C 117.176238 92.1639432 -0.223088475
C 118.469628 92.8826484 -0.215081495
C 118.427965 94.3477582 -0.18089621
C 119.716149 90.7124724 -0.367806287
C 119.718039 92.1651471 -0.328169361
C 120.958387 92.8777696 -0.378103275
C 120.937777 94.3789686 -0.303453238
C 122.222952 90.6866147 -0.495602007
C 122.22405 92.1792966 -0.519681733
C 123.461074 92.9166373 -0.482318986
C 123.487468 94.3356521 -0.338364256
C 124.735028 90.7646044 -0.596727845
C 124.708126 92.16314 -0.631807712
C 125.979767 92.8600649 -0.720669786
C 125.98941 94.3079803 -0.669977084
C 127.234596 90.7348188 -0.792400073
C 127.195375 92.1724521 -0.72803377
C 128.430589 92.910401 -0.670406588
C 128.452192 94.3806148 -0.605441824
C 129.717939 90.7834974 -0.983564305
C 129.693078 92.2543312 -0.852425936
C 130.977127 92.9864969 -0.972741194
C 130.981422 94.4102607 -0.874037741
C 132.223088 90.7499853 -1.13326162
C 132.225788 92.2375638 -1.07333522
C 133.448963 92.9549852 -1.01459825
C 133.480204 94.3501311 -0.901292458
C 134.71155 90.7331019 -1.25911283
C 134.669426 92.16739 -1.19618691
C 135.948878 92.9365251 -0.993636029
C 135.918502 94.3954676 -0.854229551
C 137.193736 90.7400862 -1.04256018
C 137.19593 92.2105857 -0.955058374
C 138.453416 92.9224448 -0.830989746
C 138.429772 94.3337198 -0.782393161
C 139.669962 90.7042474 -0.825198353
C 139.734726 92.1786992 -0.802429587
C 140.98158 92.9118231 -0.70563694
C 140.961726 94.3580661 -0.79935181
C 142.235298 90.6770502 -0.661857921
C 142.267265 92.1161028 -0.631346652
C 143.476312 92.9369886 -0.496804988
C 143.455856 94.3654885 -0.614833929
C 144.711742 90.7805211 -0.452254642
C 144.731781 92.2195565 -0.522164848
C 145.967409 92.9542135 -0.498683855
C 145.920968 94.3579802 -0.521762733
C 147.157593 90.8205257 -0.196618497
C 147.179019 92.2521552 -0.27277718
C 148.446121 92.9488801 -0.165710612
C 148.434983 94.3921876 -0.235342396
C 149.65216 90.8087015 -0.0182905616
C 149.664699 92.2452179 -0.0670724582
C 150.947137 92.9470115 -0.0268174728
C 150.934706 94.3948006 -0.158477764
C 152.119343 90.7606781 0.187021045
C 152.204695 92.2167032 0.0632403827
C 153.46904 92.9388541 -0.0126423743
C 153.453858 94.3782495 -0.0605645001
C 154.680962 90.8273339 0.272311387
C 154.728817 92.222329 0.121589158
C 155.958544 92.9307241 0.184852399
C 155.938693 94.3195142 0.00605024748
C 157.12515 90.8077087 0.416482133
C 157.166584 92.2383122 0.345193273
C 158.407131 92.9174016 0.17939026
C 158.425876 94.3657688 0.021307706
C 159.649311 90.8015674 0.228154906
C 159.66373 92.2331177 0.17973979
C 160.961185 92.9159364 0.130632391
C 160.869377 94.3452836 -0.114282867
C 162.166406 90.7798078 0.217227668
C 162.207898 92.2395631 0.155799063
C 163.458494 92.9286612 -0.0611499412
C 163.440749 94.3035279 -0.291594403
C 164.661872 90.7357016 0.107881561
C 164.698893 92.1808796 -0.052245588
C 165.932576 92.8762709 -0.329019816
C 165.911126 94.3091591 -0.497779017
C 167.132214 90.70712 -0.0949362253
C 167.138725 92.1350082 -0.342756488
C 168.382934 92.8388497 -0.502110135
C 168.411114 94.2814336 -0.669570906
C 169.657842 90.7103807 -0.251323706
C 169.660453 92.1159557 -0.385332446
C 170.94796 92.8679429 -0.455504998
C 170.940428 94.2706683 -0.585476674
C 172.168302 90.634746 -0.321344991
C 172.208607 92.0863485 -0.398407001
C 173.441955 92.7852526 -0.346815898
C 173.438421 94.2839837 -0.478297684
C 174.686831 90.6230403 -0.197066591
C 174.702824 92.08642 -0.26790868
C 175.926136 92.8235852 -0.196408771
C 175.915059 94.2673574 -0.280061466
C 177.167351 90.6581546 0.0537996116
C 177.166984 92.1261022 0.00558396852
C 178.423197 92.8005231 0.00794578506
C 178.435784 94.242639 -0.0875046284
C 179.61818 90.5838589 0.279400558
C 179.659259 92.0410392 0.258200592
C 180.918852 92.7641816 0.168268462
C 180.904642 94.2949785 0.0670428273
C 182.108231 90.6213558 0.0995543278
C 182.133755 92.039634 0.0419802832
C 183.382178 92.7699302 0.0637833523
C 183.378465 94.2767987 -0.0105196843
C 184.592544 90.6587977 0.124452913
C 184.644253 92.0818522 0.0748272288
C 185.875168 92.8014473 0.072392106
C 185.848668 94.2614458 -0.0221305576
C 187.06848 90.6581932 0.1776945
C 187.1237 92.1052052 0.10939424
C 188.376918 92.8111198 0.00299401632
C 188.366912 94.2384287 -0.213489452
C 189.565808 90.6856217 0.125849345
C 189.626528 92.107598 0.0538099542
C 190.846786 92.8278042 0.0838648483
C 190.824532 94.2617449 -0.172752395
C 192.090385 90.6688024 0.111281922
C 192.123805 92.0964426 0.06971827
C 193.320797 92.7836349 -0.0208922589
C 193.303632 94.2196471 -0.216799024
C 194.626517 90.6463143 0.00840552668
C 194.558865 92.1308814 -0.0518147502
C 195.815287 92.8207999 0.00405445925
C 195.816505 94.2496515 0.0518035813
C 197.056369 90.6054883 -0.00359353687
C 197.021014 92.0527793 0.0121648716
C 198.270421 92.8385851 0.0773327436
C 198.299006 94.2885325 0.0857644172
C 199.495169 90.6136015 0.17352628
C 199.524834 92.0582047 0.114116005
C 200.774837 92.7685556 0.163400437
C 200.73313 94.1811676 0.0109297484
C 202.001283 90.6054365 0.22259328
C 202.001868 92.0922747 0.226174415
C 203.235248 92.7972512 0.147794339
C 203.210785 94.2005228 -0.0284163795
C 204.43749 90.6016996 0.208776476
C 204.484166 92.0331265 0.149127676
C 205.763847 92.8070991 0.103820258
C 205.733446 94.2466133 -0.0526817635
C 206.965458 90.6549788 0.162617988
C 206.980257 92.0512645 0.110763235
C 208.23417 92.7982377 0.0194035043
C 208.235563 94.2049997 -0.207217203
C 209.457924 90.649047 0.168098961
C 209.526864 92.116408 0.0119783759
C 210.806413 92.8333024 -0.0952157606
C 210.744528 94.2789462 -0.276821646
C 212.043137 90.6618694 0.0990304886
C 212.036829 92.1387338 -0.0303713623
C 213.275645 92.8095075 -0.119229191
C 213.261964 94.2435806 -0.269841804
C 214.532477 90.6313563 0.0858888952
C 214.502156 92.069837 -0.085297027
C 215.761368 92.839504 -0.103143586
C 215.731104 94.2732971 -0.273294773
C 217.014768 90.7366999 0.183337287
C 217.016206 92.1522308 0.0199759566
C 218.30514 92.853427 -0.0361009594
C 218.281907 94.3084094 -0.21566343
C 219.514374 90.6868321 0.169808083
C 219.520054 92.0993372 0.00692937422
C 220.789906 92.7921225 -0.0814020237
C 220.734886 94.2934905 -0.21579691
C 222.047488 90.6349184 -0.106843481
C 222.030547 92.0941772 -0.228038225
C 223.241936 92.8435538 -0.402700607
C 223.240436 94.2948833 -0.477931427
C 224.49027 90.661787 -0.480323011
C 224.485839 92.0838174 -0.49539805
C 225.69925 92.7634219 -0.542620157
C 225.719744 94.2521894 -0.560944186
C 226.953473 90.6040099 -0.58264565
C 226.96468 92.0060187 -0.594359909
C 228.183317 92.7264061 -0.750902812
C 228.190922 94.1799386 -0.825348229
C 229.40684 90.6165374 -0.852590341
C 229.421969 92.0815252 -0.859006657
C 230.683751 92.7690657 -0.87542849
C 230.697801 94.1849327 -0.938002252
C 231.895902 90.6296839 -1.01093032
C 231.912589 92.0490135 -0.961780402
C 233.169043 92.7640417 -1.0183146
C 233.180353 94.191577 -1.04613205
C 234.415885 90.6488851 -1.10903259
C 234.410482 92.0970502 -1.08996666
C 235.665169 92.8055697 -1.07258675
C 235.664992 94.2356669 -1.04786064
C 236.860821 90.6709564 -1.04683329
C 236.872161 92.0894567 -1.09179852
C 238.172761 92.8114989 -1.03726098
C 238.169762 94.2582807 -1.04398369
C 239.446595 90.6360225 -0.968922344
C 239.424299 92.0496581 -0.964864366
C 240.660996 92.7977254 -0.903171521
C 240.670599 94.2196973 -0.941832773
C 241.954933 90.6553264 -0.939712385
C 241.920918 92.0986707 -0.913839925
C 243.126317 92.7955972 -1.00182682
C 243.138919 94.2157444 -0.976096406
C 244.451018 90.6375089 -1.14983574
C 244.404898 92.1210784 -1.10707589
C 245.64022 92.8182425 -1.18561487
C 245.678849 94.2835307 -1.10554069
C 246.885669 90.660082 -1.24337749
C 246.904597 92.0995204 -1.31989512
C 248.099022 92.8748426 -1.36457569
C 248.146465 94.2964687 -1.24829438
C 249.378053 94.9461103 -1.24092839
C 249.363561 96.4049075 -1.11902595
C 1.19658237 97.1453637 -1.1467434
C 1.21661821 98.5722757 -1.0288919
C 2.48895453 94.9904544 -1.32757215
C 2.46538001 96.4652001 -1.11674416
C 3.7231996 97.1888036 -1.00997116
C 3.72757145 98.6150428 -1.04647684
C 4.9938799 95.0299026 -1.07611961
C 4.97856146 96.4690732 -1.00008878
C 6.24026682 97.2373542 -0.922702654
C 6.2582331 98.6447952 -0.99701158
C 7.49686318 95.0207144 -0.989201923
C 7.49894853 96.4909663 -0.896696828
C 8.73362539 97.1773155 -0.836064654
C 8.72213662 98.6258984 -0.959162059
C 9.97158295 95.0222361 -0.904810215
C 9.98257902 96.436661 -0.777617545
C 11.227783 97.1785789 -0.778694537
C 11.2267815 98.5803239 -0.945963913
C 12.4852966 95.014509 -0.960200908
C 12.4715161 96.4608559 -0.875867694
C 13.7045011 97.1791204 -1.01897012
C 13.7852549 98.633891 -1.07080569
C 14.9519926 95.0669695 -1.14551321
C 14.9709037 96.4423431 -1.11369142
C 16.2038271 97.1884157 -1.20845944
C 16.2316369 98.6080102 -1.15521133
C 17.4615331 95.0462837 -1.06537528
C 17.4274439 96.5188351 -1.16261794
C 18.7019632 97.1951527 -1.1080484
C 18.7485888 98.6592935 -1.19815232
C 19.951374 95.0037874 -0.982381676
C 19.9822264 96.4619075 -1.14223113
C 21.2054558 97.157675 -1.1576491
C 21.211236 98.642711 -1.20441138
C 22.4124138 94.9894851 -0.906473759
C 22.4266629 96.4387222 -1.06779559
C 23.7101063 97.126399 -1.21519493
C 23.6809827 98.5734194 -1.3274723
C 24.9302851 94.9844427 -1.3237205
C 24.9495524 96.4428922 -1.36738067
C 26.1806822 97.1456548 -1.50871967
C 26.2171335 98.5553678 -1.51809055
C 27.4176833 94.9807116 -1.45310433
C 27.4427122 96.4274941 -1.49111972
C 28.6515806 97.1348354 -1.64267045
C 28.6654653 98.6032061 -1.67618194
C 29.9408233 94.9975573 -1.37085295
C 29.8771072 96.4170472 -1.49135027
C 31.1343597 97.1212667 -1.41130337
C 31.1493443 98.5797481 -1.44538543
C 32.467749 94.9808302 -1.14959925
C 32.421362 96.4374767 -1.32975701
C 33.6402677 97.1585411 -1.17015005
C 33.6302076 98.6159436 -1.17813655
C 34.8689391 94.9782587 -0.960014655
C 34.9009401 96.3983479 -0.990316433
C 36.1332147 97.1028796 -0.93146268
C 36.1290185 98.5356701 -0.874508111
C 37.4138553 95.0027853 -0.87126075
C 37.4203092 96.4179722 -0.90183942
C 38.6579483 97.1352062 -0.724014758
C 38.6422831 98.5876934 -0.684714826
C 39.9364981 94.9903467 -0.685086792
C 39.9056074 96.4090138 -0.623847537
C 41.1040001 97.1828651 -0.557435879
C 41.0935575 98.6721706 -0.597238237
C 42.3670247 95.0289893 -0.480654792
C 42.4123101 96.4928737 -0.490844067
C 43.6375075 97.216317 -0.628545305
C 43.5951179 98.6420496 -0.639813827
C 44.9042323 95.0611684 -0.521064735
C 44.8930031 96.485917 -0.550430938
C 46.1325079 97.2039674 -0.621129224
C 46.1190487 98.6471111 -0.841192356
C 47.4148706 95.0742269 -0.484779057
C 47.373296 96.4851848 -0.577735939
C 48.6352573 97.2073025 -0.72114392
C 48.6689254 98.6338901 -0.926215642
C 49.9306277 95.0780996 -0.534228523
C 49.9138868 96.4725839 -0.687879192
C 51.1663345 97.187425 -0.700028441
C 51.1876148 98.6170217 -0.85583538
C 52.4188415 95.027863 -0.444170373
C 52.4127995 96.506714 -0.551665002
C 53.6713277 97.1942406 -0.527603766
C 53.6690752 98.6542822 -0.668632574
C 54.9598776 95.0337803 -0.398567853
C 54.8886641 96.4756361 -0.41988642
C 56.146836 97.2051644 -0.230785383
C 56.1229276 98.650059 -0.389321344
C 57.4004745 95.0147721 -0.0823770598
C 57.380243 96.4966918 -0.133937238
C 58.6294191 97.1685902 -0.161885878
C 58.655013 98.5964508 -0.302943348
C 59.9126122 95.0234402 -0.0437099474
C 59.8712531 96.4910225 -0.061481634
C 61.1527377 97.1966238 -0.128111963
C 61.1497132 98.6023254 -0.234895184
C 62.4542305 95.0234102 -0.0311173263
C 62.4047927 96.4427216 -0.180650931
C 63.6422501 97.1494558 -0.223594508
C 63.6126527 98.6491622 -0.286015711
C 64.840698 95.0017418 -0.11621016
C 64.8590039 96.4685682 -0.179472999
C 66.1078445 97.1962149 -0.235741203
C 66.0675138 98.6435761 -0.239682999
C 67.3333379 95.045383 -0.172851781
C 67.3642125 96.4851521 -0.271019251
C 68.5688484 97.2100334 -0.23128042
C 68.5715523 98.649574 -0.29568784
C 69.8378561 95.015538 -0.0885123716
C 69.8271926 96.4465939 -0.191034462
C 71.0621792 97.1945609 -0.368526269
C 71.0723122 98.6318057 -0.442220929
C 72.3070267 94.9668124 -0.047337231
C 72.3040974 96.4374525 -0.30162131
C 73.5406197 97.132987 -0.360010059
C 73.5338906 98.608522 -0.431263219
C 74.8055774 95.0265756 -0.0146489758
C 74.7889338 96.4036124 -0.225782568
C 75.9763121 97.2052587 -0.109286997
C 76.0000419 98.5978684 -0.101239532
C 77.2881364 94.9925951 -0.0568874953
C 77.2291775 96.4939898 -0.0645171359
C 78.4878534 97.1835425 -0.0134891791
C 78.4653194 98.6215757 -0.0641661001
C 79.7904754 94.9724752 0.101177061
C 79.7808755 96.4274655 0.0319488417
C 80.9976399 97.1350378 -0.00967805294
C 80.9868077 98.5979234 0.0137786357
C 82.2193965 94.9700431 0.226332735
C 82.2229604 96.4181304 0.104861525
C 83.4883694 97.1659328 0.180571979
C 83.5128117 98.5822526 0.204965323
C 84.7600834 94.9964897 0.140649452
C 84.7370347 96.4490794 0.121240958
C 85.9841565 97.1451379 0.228597464
C 85.9966123 98.5832805 0.24055002
C 87.3245765 94.9813171 0.155024674
C 87.2506614 96.4245579 0.210768014
C 88.5104701 97.1513452 0.0883358015
C 88.4719818 98.595842 0.0321933665
C 89.7678511 95.0209689 0.13664829
C 89.7493679 96.4511656 0.0625389824
C 90.9538471 97.1717737 -0.0866116852
C 90.9670161 98.5967334 -0.0658482039
C 92.2184691 94.9988727 -0.0136548028
C 92.2451651 96.4570458 -0.0187372652
C 93.4639475 97.1869286 0.010897101
C 93.4991035 98.6290595 -0.0605483745
C 94.7244334 95.0012967 -0.274699564
C 94.7365059 96.4524345 -0.158823588
C 95.9830718 97.1759937 -0.177512568
C 95.9671641 98.5989916 -0.135151351
C 97.2479562 95.0661205 -0.315761849
C 97.2625592 96.4842003 -0.250453959
C 98.492196 97.1519156 -0.287636192
C 98.5011132 98.6109636 -0.165000713
C 99.7384161 95.0179844 -0.336013473
C 99.7398044 96.4452621 -0.291019231
C 101.038259 97.0933767 -0.169220509
C 101.033248 98.5914917 -0.0545794872
C 102.22305 95.0017441 -0.423475184
C 102.242939 96.4160593 -0.210748159
C 103.535823 97.1261305 -0.201209485
C 103.528262 98.5672267 -0.0609533336
C 104.745096 95.0152275 -0.390589337
C 104.765437 96.3923065 -0.269883958
C 106.001756 97.18424 -0.242124803
C 106.027715 98.6319775 -0.195682387
C 107.252645 94.9878128 -0.414994043
C 107.24518 96.4374183 -0.263041431
C 108.521817 97.1458105 -0.257292455
C 108.476371 98.6047287 -0.280674898
C 109.738392 95.0409946 -0.473646532
C 109.754636 96.4765217 -0.354676051
C 110.994605 97.2176075 -0.384890836
C 110.984778 98.629417 -0.301224867
C 112.200081 95.0369382 -0.508273704
C 112.245943 96.4881395 -0.430332111
C 113.483191 97.1820268 -0.226005353
C 113.484704 98.6192526 -0.141951596
C 114.671597 95.0506595 -0.068752782
C 114.744093 96.4605295 -0.0849027438
C 115.956663 97.2366924 -0.114291943
C 115.996518 98.6536892 -0.181821473
C 117.161713 95.0670581 -0.108069557
C 117.186361 96.4791606 -0.141921864
C 118.439146 97.2317179 -0.255547493
C 118.439517 98.6934531 -0.273631119
C 119.697098 95.065567 -0.28361039
C 119.67674 96.5269449 -0.222277457
C 120.981318 97.2159825 -0.218884824
C 120.995543 98.6555612 -0.249851941
C 122.223258 95.0614553 -0.281719454
C 122.226399 96.4996063 -0.30467454
C 123.487503 97.2147372 -0.446394492
C 123.484083 98.6517039 -0.453369892
C 124.740284 95.0187312 -0.549402617
C 124.759581 96.4589913 -0.471474563
C 125.980368 97.2101374 -0.527469226
C 125.973444 98.6465378 -0.559839842
C 127.218067 95.0824997 -0.623683904
C 127.195909 96.5327711 -0.615249345
C 128.456894 97.2524001 -0.647323766
C 128.466748 98.6668303 -0.584265347
C 129.714684 95.0976134 -0.673130171
C 129.703161 96.5265673 -0.669533111
C 130.982824 97.2283472 -0.711681879
C 130.945349 98.6972822 -0.635200474
C 132.250575 95.0517649 -0.857762552
C 132.251218 96.5013391 -0.812519333
C 133.519594 97.2787743 -0.826265154
C 133.470325 98.6681185 -0.667467778
C 134.702267 95.0631429 -0.831058227
C 134.746532 96.5251153 -0.784154689
C 135.983117 97.2622334 -0.634507464
C 135.939502 98.6911269 -0.480507295
C 137.190286 95.0667894 -0.829516403
C 137.246764 96.523239 -0.757211545
C 138.444034 97.2458327 -0.774930869
C 138.447746 98.7064543 -0.735053893
C 139.723564 95.0734055 -0.89303282
C 139.698202 96.5218198 -0.84566857
C 140.967952 97.2282623 -0.877015879
C 140.959307 98.7027157 -0.843029717
C 142.230195 95.0570208 -0.693044132
C 142.184231 96.4963457 -0.671333611
C 143.403316 97.2579012 -0.548471541
C 143.394337 98.6733656 -0.542057743
C 144.693391 95.092005 -0.544650255
C 144.673159 96.5355884 -0.492864158
C 145.910632 97.2793263 -0.358111792
C 145.918853 98.7081937 -0.336452401
C 147.170486 95.1036465 -0.305139511
C 147.156941 96.5359754 -0.326076505
C 148.428153 97.2364066 -0.325981566
C 148.460997 98.6548014 -0.327292954
C 149.677365 95.1216264 -0.265979079
C 149.643253 96.5240149 -0.288105646
C 150.895936 97.2499294 -0.24099816
C 150.91246 98.7100293 -0.238412212
C 152.195101 95.1190586 -0.210875871
C 152.166336 96.5793727 -0.20826981
C 153.425256 97.3025996 -0.186014434
C 153.399303 98.7208875 -0.239759271
C 154.703908 95.085619 -0.102200152
C 154.688838 96.5733902 -0.155359805
C 155.961841 97.2549455 -0.219356786
C 155.951516 98.6608701 -0.328717516
C 157.190722 95.0968377 -0.0365812155
C 157.163666 96.5008829 -0.226724025
C 158.409917 97.2378099 -0.250199736
C 158.426038 98.673172 -0.405309589
C 159.648897 95.1052777 -0.0424397021
C 159.678205 96.5123877 -0.136264107
C 160.902377 97.1908514 -0.209067662
C 160.912467 98.6752359 -0.361650884
C 162.162786 95.0407217 -0.238671444
C 162.194658 96.4478577 -0.376124888
C 163.421409 97.2072891 -0.519162991
C 163.375209 98.673995 -0.531339729
C 164.661475 95.0471403 -0.489848964
C 164.700953 96.5071626 -0.571556962
C 165.963833 97.1945215 -0.760274729
C 165.973513 98.5966287 -0.76726256
C 167.194753 95.043838 -0.649031348
C 167.181836 96.4297166 -0.750671849
C 168.409184 97.1536026 -0.697823681
C 168.421896 98.611023 -0.759465469
C 169.688939 94.9882581 -0.630189285
C 169.650207 96.3909136 -0.562503553
C 170.9278 97.1305298 -0.537827664
C 170.861973 98.6141096 -0.583561931
C 172.201282 94.9794139 -0.582473271
C 172.228854 96.4280328 -0.578726199
C 173.453378 97.1912377 -0.56145578
C 173.403176 98.6260006 -0.542093772
C 174.690084 95.0470531 -0.45308941
C 174.679532 96.4332592 -0.487297693
C 175.920183 97.1310461 -0.460008353
C 175.925324 98.5730441 -0.532149387
C 177.156451 94.9974069 -0.232452811
C 177.176565 96.4350087 -0.444627228
C 178.432715 97.1504603 -0.40015001
C 178.380524 98.5936204 -0.482540245
C 179.646449 94.975873 -0.0648106976
C 179.67632 96.427139 -0.156162162
C 180.897126 97.1655447 -0.123263549
C 180.867709 98.6068364 -0.284110528
C 182.165817 95.0224862 -0.0314407659
C 182.155416 96.4866325 -0.0785003448
C 183.415027 97.1985756 -0.161708181
C 183.357509 98.6414055 -0.379819842
C 184.58545 95.0018478 0.0224738799
C 184.624816 96.4208526 -0.0942958366
C 185.855344 97.156372 -0.317154247
C 185.815575 98.6590632 -0.54927664
C 187.128781 94.961497 -0.199474322
C 187.093699 96.4017648 -0.448011063
C 188.361913 97.1239566 -0.670462429
C 188.338501 98.5800767 -0.80010282
C 189.599861 94.9430555 -0.311136506
C 189.617548 96.3601835 -0.558970189
C 190.841651 97.124662 -0.659471151
C 190.830591 98.5743002 -0.746364446
C 192.053698 94.9520317 -0.329975316
C 192.084465 96.4020557 -0.442047888
C 193.345492 97.1169649 -0.371529374
C 193.296117 98.570422 -0.452208268
C 194.535209 94.9487629 -0.153191321
C 194.538703 96.3631113 -0.220634574
C 195.76411 97.1225454 -0.0523125335
C 195.76013 98.5648851 -0.218428445
C 197.055506 94.9330713 0.172725018
C 197.017392 96.4205875 0.0456055998
C 198.273419 97.1761282 -0.0335546535
C 198.259231 98.5882523 -0.262009522
C 199.553343 94.9859577 0.0150116733
C 199.530133 96.4420113 -0.0349874906
C 200.776632 97.1546715 -0.109572011
C 200.788223 98.6145387 -0.288604466
C 202.033151 94.8857026 -0.115866775
C 201.965317 96.3316079 -0.173152927
C 203.231643 97.0562764 -0.280063201
C 203.240553 98.53737 -0.408142949
C 204.458663 94.999131 -0.14919762
C 204.47838 96.4029005 -0.229084344
C 205.712934 97.0937105 -0.267999965
C 205.752637 98.5680812 -0.42098679
C 206.98916 94.9390604 -0.201998847
C 207.000538 96.3975726 -0.370138943
C 208.203217 97.1264712 -0.466598834
C 208.204251 98.5680194 -0.640851254
C 209.454162 94.9769077 -0.263605279
C 209.442237 96.4360412 -0.350601982
C 210.687983 97.164678 -0.420526469
C 210.676599 98.6098157 -0.594889325
C 211.987504 94.947764 -0.38785311
C 211.983508 96.3726763 -0.34243466
C 213.18914 97.145309 -0.373467013
C 213.183242 98.5926651 -0.549806491
C 214.501855 95.0007958 -0.327778953
C 214.447493 96.4178725 -0.385277673
C 215.699807 97.1755599 -0.437565101
C 215.691226 98.583785 -0.565938982
C 217.010775 94.9859834 -0.334009457
C 217.00421 96.4398979 -0.364962137
C 218.248369 97.1760787 -0.358432577
C 218.210196 98.5955162 -0.537801632
C 219.545833 95.0145484 -0.181476994
C 219.463859 96.4509147 -0.339849795
C 220.762166 97.1449505 -0.540369387
C 220.783083 98.5947835 -0.739905322
C 221.987643 94.959556 -0.484378902
C 221.973824 96.4310765 -0.634932175
C 223.236167 97.1319413 -0.800358312
C 223.219838 98.5890621 -0.918604147
C 224.491572 95.0418644 -0.55605104
C 224.488622 96.4339509 -0.743565653
C 225.679789 97.0974191 -0.818431035
C 225.693919 98.5912205 -0.977160081
C 226.958032 94.8995755 -0.708194774
C 226.992047 96.3496322 -0.757380162
C 228.203072 97.1391554 -0.849998071
C 228.173651 98.5608685 -1.02256811
C 229.461464 94.9174542 -0.885983796
C 229.41677 96.4200252 -0.921954697
C 230.683856 97.10977 -1.03904969
C 230.676528 98.5499635 -1.15926903
C 231.916697 94.9156422 -0.950279835
C 231.913987 96.3886187 -1.02904486
C 233.188008 97.1170933 -1.02503881
C 233.184002 98.5778786 -1.12844428
C 234.435585 94.9355403 -1.08986351
C 234.420601 96.3871479 -0.988398606
C 235.666015 97.1350723 -1.0048875
C 235.635475 98.5408884 -1.13446165
C 236.874468 94.9375606 -0.993211869
C 236.901263 96.4294283 -0.949678593
C 238.19852 97.1012251 -0.970867003
C 238.167839 98.5293718 -0.898498765
C 239.417292 94.9564789 -0.966390804
C 239.445223 96.4012378 -0.935903013
C 240.665297 97.1515462 -0.93079001
C 240.635312 98.5746728 -0.858954997
C 241.904536 94.9490066 -0.97462469
C 241.912433 96.3999735 -0.937210449
C 243.141365 97.1008713 -0.916967919
C 243.14318 98.55026 -0.847182486
C 244.394028 94.9793771 -1.02104237
C 244.388351 96.4361645 -0.976017347
C 245.637473 97.1617152 -0.95017061
C 245.620194 98.5521026 -0.8397038
C 246.880038 95.0118589 -1.06698043
C 246.865603 96.4422319 -0.963071824
C 248.135004 97.1183078 -0.965775393
C 248.097255 98.6141959 -0.946096579
C 249.353247 99.2850719 -0.971387546
C 249.361438 100.713492 -0.937199226
C 1.21921084 101.402092 -0.831152782
C 1.21541008 102.863723 -0.78144605
C 2.46492561 99.2707484 -0.982483409
C 2.49558007 100.700059 -0.773353327
C 3.71142874 101.449375 -0.836320988
C 3.76298183 102.867927 -0.840881161
C 5.01645178 99.3835582 -1.02034986
C 4.95406963 100.785258 -0.962214001
C 6.22662796 101.492806 -1.07391611
C 6.23867373 102.939309 -1.02005839
C 7.50682711 99.316539 -1.03778103
C 7.4690595 100.742791 -1.0637177
C 8.70304605 101.483289 -1.11012686
C 8.69016948 102.950157 -1.1137989
C 9.96613941 99.2939081 -1.01942386
C 9.99784339 100.780414 -1.11939388
C 11.2702062 101.426485 -1.19774478
C 11.2462581 102.917258 -1.22936629
C 12.4852013 99.3172332 -1.07842103
C 12.4784299 100.743295 -1.15672544
C 13.6884538 101.463393 -1.15950971
C 13.7641898 102.893981 -1.19562263
C 14.9942424 99.3149269 -1.10945167
C 14.9801372 100.753915 -1.14319886
C 16.2688335 101.471841 -1.25306455
C 16.2840098 102.911291 -1.2399433
C 17.4887205 99.3322559 -1.22335936
C 17.4994379 100.765615 -1.28052598
C 18.7658924 101.50667 -1.30589737
C 18.7120183 102.907722 -1.38675378
C 19.9826889 99.3893545 -1.26998898
C 19.9694716 100.827042 -1.28288182
C 21.2096942 101.503593 -1.39135995
C 21.2210402 102.954302 -1.43749456
C 22.4430785 99.3493086 -1.32868842
C 22.414412 100.789099 -1.45965518
C 23.6684645 101.528607 -1.55786039
C 23.6639415 102.961612 -1.57041352
C 24.9599863 99.292981 -1.36731142
C 24.9255929 100.762076 -1.54804154
C 26.1674525 101.538309 -1.67278584
C 26.1560293 102.944603 -1.64494899
C 27.425503 99.3483881 -1.62197199
C 27.4070972 100.807059 -1.63516682
C 28.621218 101.534833 -1.5732487
C 28.6240916 102.961602 -1.62390236
C 29.9236397 99.2692218 -1.6277929
C 29.8778159 100.72866 -1.54701859
C 31.145678 101.401598 -1.42703333
C 31.109996 102.867728 -1.43735007
C 32.3991562 99.3001724 -1.25648247
C 32.4222272 100.77257 -1.30199051
C 33.6443561 101.53066 -1.20096545
C 33.6404723 102.971565 -1.33529431
C 34.8767788 99.3156383 -0.900210041
C 34.8630993 100.780428 -0.990071156
C 36.1026874 101.533574 -0.952650394
C 36.1349431 102.975827 -1.13304658
C 37.3617997 99.2967939 -0.840200511
C 37.3492332 100.755368 -0.885882721
C 38.5864044 101.466623 -0.84613588
C 38.597364 102.927383 -0.995214304
C 39.8516962 99.3645323 -0.660560182
C 39.8115632 100.760061 -0.761603312
C 41.0208192 101.50829 -0.810305875
C 41.1035063 102.944556 -0.940442945
C 42.3188951 99.3696212 -0.637678413
C 42.2796032 100.787479 -0.821572171
C 43.5465508 101.519509 -0.994391283
C 43.6089768 102.954157 -1.14750356
C 44.8369381 99.3669968 -0.841231052
C 44.8386006 100.779991 -0.961467077
C 46.1191459 101.451468 -1.0562936
C 46.0734943 102.938062 -1.2501076
C 47.4191861 99.3376434 -0.931664223
C 47.3752299 100.79853 -0.970977531
C 48.6302643 101.54477 -0.930677027
C 48.596199 102.952947 -1.04659039
C 49.8904104 99.2919667 -0.962946605
C 49.8724764 100.753332 -0.901167095
C 51.1301365 101.494908 -0.857874597
C 51.1275704 102.930664 -1.08758129
C 52.4336264 99.3641764 -0.755059841
C 52.4070943 100.785783 -0.811414135
C 53.6639519 101.51753 -0.960209391
C 53.6472728 102.936967 -1.01885388
C 54.9243091 99.3508542 -0.640509711
C 54.8972624 100.793417 -0.856114412
C 56.1549503 101.453802 -0.832703506
C 56.1215689 102.918875 -0.858468984
C 57.3874882 99.2933372 -0.436565999
C 57.4121783 100.72024 -0.574162042
C 58.6009528 101.424885 -0.444980737
C 58.5962526 102.905453 -0.511686488
C 59.8933349 99.3059188 -0.240398304
C 59.8665643 100.731857 -0.361530545
C 61.0939715 101.49818 -0.314983128
C 61.0673904 102.958986 -0.33090558
C 62.3726118 99.3260846 -0.30272528
C 62.2997995 100.779749 -0.364263483
C 63.5580483 101.486966 -0.374154814
C 63.5245461 102.960258 -0.398513215
C 64.8243389 99.3681749 -0.259186178
C 64.8241742 100.780759 -0.332723282
C 66.0325478 101.501881 -0.369350651
C 66.0411081 102.97628 -0.447982614
C 67.3431403 99.406862 -0.365528555
C 67.2921245 100.818891 -0.405915584
C 68.5294355 101.531873 -0.541558538
C 68.5278226 102.982378 -0.574402421
C 69.8027432 99.37405 -0.499169947
C 69.8002221 100.782589 -0.504937401
C 71.0474338 101.502417 -0.432773947
C 71.035229 102.929694 -0.40723231
C 72.2964818 99.3224127 -0.477340296
C 72.3046292 100.814012 -0.414955347
C 73.5469448 101.520151 -0.341324525
C 73.4911969 102.92544 -0.399379723
C 74.7536104 99.3340265 -0.200545131
C 74.7664909 100.812934 -0.26231549
C 76.0129886 101.495576 -0.247515724
C 76.0134382 102.944294 -0.192245359
C 77.2424256 99.3501786 -0.0633925242
C 77.2583915 100.780961 -0.15764219
C 78.4939491 101.49313 -0.012934775
C 78.5233341 102.911051 0.16251968
C 79.7155637 99.3106366 -0.0235754949
C 79.7101436 100.746675 0.0694272623
C 80.9828593 101.447218 0.286622863
C 81.0125711 102.87566 0.526742714
C 82.2483179 99.2807473 0.172989409
C 82.2436178 100.730139 0.252489026
C 83.5174985 101.457316 0.346366916
C 83.4730933 102.891016 0.39987964
C 84.7493894 99.2920128 0.28568027
C 84.7476139 100.705097 0.287256654
C 86.0143487 101.460001 0.32785291
C 86.0401025 102.880203 0.341386545
C 87.2400496 99.2760435 0.152939589
C 87.2436741 100.707494 0.282680403
C 88.5000333 101.482969 0.180038787
C 88.5061621 102.960912 0.200205701
C 89.7253556 99.3316957 -0.0638811236
C 89.714007 100.772235 0.0371783733
C 90.9495112 101.458841 0.0561851134
C 91.0060714 102.871512 0.0730926342
C 92.2413237 99.2977112 -0.0577296577
C 92.1900615 100.752271 -0.0653534176
C 93.4820019 101.490357 -0.0587375331
C 93.4646671 102.94066 0.0311322869
C 94.7260184 99.3386583 -0.20352903
C 94.749198 100.793454 -0.168375105
C 95.9979627 101.466501 -0.0860706312
C 95.9658264 102.914804 -0.0303084573
C 97.2441097 99.308122 -0.202973823
C 97.25139 100.782296 -0.0842590441
C 98.5125072 101.482491 -0.00687031704
C 98.479807 102.979724 0.0137817993
C 99.7539465 99.3142676 -0.0442622274
C 99.7649302 100.734433 0.0539948117
C 101.003673 101.440379 0.162658485
C 100.982905 102.917615 0.262594651
C 102.290512 99.3235562 0.0145199155
C 102.262359 100.755909 0.128942408
C 103.511509 101.47459 0.193494127
C 103.511718 102.930571 0.201926747
C 104.764453 99.3127154 -0.0221021135
C 104.777443 100.770845 0.118782966
C 106.058315 101.488133 0.0372250148
C 106.01571 102.904761 0.0890935304
C 107.254543 99.3279902 -0.196566982
C 107.280682 100.776409 -0.097390125
C 108.491094 101.486582 -0.206983865
C 108.524324 102.934214 -0.186388133
C 109.713151 99.350801 -0.295649814
C 109.703857 100.757707 -0.234975757
C 110.964405 101.485507 -0.161582878
C 111.003329 102.942885 -0.122985834
C 112.256025 99.3252373 -0.253113997
C 112.260997 100.788804 -0.228328464
C 113.492129 101.515235 -0.170747493
C 113.533009 102.953538 -0.155441914
C 114.758586 99.3584006 -0.136265063
C 114.758745 100.797533 -0.199219701
C 115.987332 101.574461 -0.216676734
C 115.937156 102.988103 -0.314621923
C 117.202477 99.4463082 -0.2426056
C 117.23348 100.853276 -0.230696603
C 118.473053 101.552952 -0.254182325
C 118.472933 102.973011 -0.361489037
C 119.711198 99.3911857 -0.372173128
C 119.744325 100.822518 -0.337720894
C 120.990426 101.537314 -0.390528292
C 121.038837 102.983201 -0.4726441
C 122.256119 99.3548517 -0.367350119
C 122.227859 100.836917 -0.452891202
C 123.484856 101.55189 -0.593633883
C 123.485014 102.969218 -0.484008165
C 124.765723 99.3657963 -0.552783451
C 124.74636 100.789484 -0.634406811
C 125.971976 101.511875 -0.662755234
C 125.954457 102.923834 -0.522029661
C 127.227926 99.38956 -0.627025254
C 127.188879 100.804852 -0.753932206
C 128.470894 101.582532 -0.762857499
C 128.496897 103.031669 -0.68911289
C 129.708013 99.4155452 -0.579234341
C 129.743205 100.815899 -0.660135036
C 130.965142 101.534572 -0.653618225
C 130.946569 102.992385 -0.699166076
C 132.198484 99.3831961 -0.620616179
C 132.189192 100.825486 -0.688321207
C 133.423703 101.535389 -0.642184622
C 133.416604 103.031357 -0.645021339
C 134.708723 99.3702362 -0.565265869
C 134.660913 100.843975 -0.559296737
C 135.939595 101.57859 -0.589766174
C 135.922035 103.012692 -0.656076706
C 137.208773 99.4428173 -0.611750978
C 137.203384 100.893236 -0.505093465
C 138.448182 101.566309 -0.614970655
C 138.438684 103.008842 -0.698631298
C 139.707182 99.4501755 -0.733598936
C 139.694431 100.84409 -0.690151058
C 140.944515 101.577224 -0.676022268
C 140.955905 103.050468 -0.777109579
C 142.177628 99.3827442 -0.758951604
C 142.186004 100.826844 -0.707522928
C 143.402513 101.565856 -0.604221775
C 143.451248 102.995648 -0.650743212
C 144.611815 99.3987801 -0.332402048
C 144.657886 100.866707 -0.398204257
C 145.931118 101.583934 -0.328949932
C 145.931058 103.019091 -0.292212222
C 147.182485 99.4036285 -0.39043828
C 147.224777 100.851665 -0.31127933
C 148.454035 101.574004 -0.250096409
C 148.405104 103.012526 -0.237728432
C 149.70658 99.4043651 -0.224037487
C 149.715108 100.847485 -0.22590954
C 150.945606 101.592943 -0.258054287
C 150.94031 103.042344 -0.231745695
C 152.145613 99.4707413 -0.251251583
C 152.192835 100.897394 -0.286533413
C 153.426364 101.589131 -0.346922672
C 153.424317 102.997898 -0.342403193
C 154.651131 99.4120677 -0.280415842
C 154.697697 100.874262 -0.309894622
C 155.900437 101.621921 -0.356254861
C 155.923241 103.071727 -0.370318102
C 157.177247 99.4279962 -0.434423636
C 157.125356 100.889315 -0.444447938
C 158.403402 101.594963 -0.517779543
C 158.423038 103.045594 -0.594463237
C 159.619346 99.3686714 -0.485738083
C 159.606648 100.838872 -0.611815242
C 160.9162 101.518818 -0.603106987
C 160.907619 102.95105 -0.664116127
C 162.163517 99.368549 -0.473233086
C 162.143382 100.815694 -0.590909366
C 163.424258 101.49142 -0.600141875
C 163.38018 102.94075 -0.630780648
C 164.678707 99.2613728 -0.626569296
C 164.67952 100.741349 -0.575768618
C 165.917604 101.47374 -0.568003669
C 165.89114 102.908287 -0.574553548
C 167.192309 99.3268067 -0.717913195
C 167.174279 100.749709 -0.625040771
C 168.411769 101.493738 -0.663406843
C 168.419972 102.914349 -0.656431642
C 169.660564 99.3229048 -0.648697553
C 169.669623 100.758695 -0.662550135
C 170.942538 101.470173 -0.611927798
C 170.862911 102.919337 -0.611932655
C 172.144891 99.3207699 -0.604571659
C 172.160548 100.723772 -0.620419826
C 173.413538 101.481541 -0.555022307
C 173.402055 102.97952 -0.568608616
C 174.668441 99.3394185 -0.541362004
C 174.660738 100.784424 -0.495283427
C 175.893254 101.519482 -0.496868677
C 175.902342 102.948939 -0.488595518
C 177.136303 99.286933 -0.568010947
C 177.154198 100.776394 -0.525040719
C 178.386401 101.488931 -0.438093569
C 178.332694 102.973379 -0.370415965
C 179.610915 99.3219554 -0.454067292
C 179.633698 100.769777 -0.465050137
C 180.879234 101.510268 -0.462425557
C 180.800102 102.949519 -0.528512511
C 182.096344 99.3389979 -0.394594626
C 182.093506 100.787143 -0.468660493
C 183.310987 101.524526 -0.663208237
C 183.308147 102.953043 -0.728940781
C 184.573426 99.3654015 -0.59716386
C 184.549183 100.791499 -0.787541201
C 185.795647 101.539491 -0.826750562
C 185.796536 102.946047 -0.904481889
C 187.100645 99.3276149 -0.681717169
C 187.042164 100.767525 -0.827605145
C 188.304882 101.449569 -0.931684863
C 188.322618 102.905007 -1.00549623
C 189.584244 99.2807146 -0.898883652
C 189.558613 100.722892 -0.923414895
C 190.794293 101.474011 -0.843702562
C 190.783673 102.894478 -0.91382508
C 192.060835 99.2522023 -0.664712309
C 192.023744 100.699814 -0.691803905
C 193.249489 101.43132 -0.648367787
C 193.283098 102.917107 -0.77423701
C 194.507507 99.3111374 -0.36729253
C 194.529313 100.75441 -0.504084621
C 195.745984 101.509654 -0.411253117
C 195.724473 102.907667 -0.549382869
C 197.008921 99.3297401 -0.227425725
C 196.990538 100.724044 -0.265746967
C 198.240778 101.452573 -0.36420398
C 198.227682 102.90906 -0.482376705
C 199.496638 99.3497337 -0.278921749
C 199.533004 100.763276 -0.329276586
C 200.733895 101.502446 -0.453193861
C 200.726824 102.945796 -0.468043182
C 201.997744 99.2569039 -0.498581355
C 201.967008 100.7573 -0.539929871
C 203.208674 101.448809 -0.533659137
C 203.19151 102.87484 -0.611132811
C 204.501941 99.2878156 -0.464067738
C 204.453066 100.747197 -0.642075802
C 205.720684 101.481367 -0.738228068
C 205.704102 102.842135 -0.821824935
C 206.995783 99.3060004 -0.548205855
C 206.948954 100.734997 -0.642683626
C 208.148768 101.457489 -0.826147162
C 208.183367 102.89282 -0.935171671
C 209.436898 99.3054675 -0.699587261
C 209.391218 100.760968 -0.854101428
C 210.684227 101.448764 -0.9674995
C 210.696411 102.885569 -1.07633148
C 211.94267 99.319657 -0.668405865
C 211.963729 100.715294 -0.833986051
C 213.219018 101.47055 -0.916723139
C 213.214091 102.901933 -1.03314603
C 214.419605 99.2775517 -0.68373513
C 214.465707 100.753131 -0.83279499
C 215.694104 101.491167 -0.817435906
C 215.67935 102.878408 -0.906790578
C 216.962587 99.3126904 -0.641428728
C 216.961546 100.757338 -0.772002823
C 218.213982 101.452385 -0.872354839
C 218.244286 102.899191 -0.997565417
C 219.476045 99.2927659 -0.657986409
C 219.485989 100.734022 -0.762453911
C 220.740404 101.493797 -0.969115273
C 220.736074 102.902761 -1.06204504
C 222.005918 99.3356445 -0.872570233
C 221.980555 100.751586 -0.990596323
C 223.266976 101.492506 -1.02346985
C 223.226588 102.92065 -1.11506906
C 224.453326 99.3147261 -1.01046901
C 224.475137 100.771063 -1.04778091
C 225.709531 101.486676 -1.12839482
C 225.685038 102.927672 -1.20065369
C 226.927578 99.2962905 -1.10017579
C 226.96682 100.758903 -1.11001088
C 228.191888 101.449687 -1.18152389
C 228.158494 102.914022 -1.31281963
C 229.413531 99.2657191 -1.1573018
C 229.431897 100.726832 -1.22279351
C 230.633672 101.487651 -1.25140637
C 230.63996 102.930132 -1.32495635
C 231.925487 99.2986803 -1.17393553
C 231.898865 100.750669 -1.28752944
C 233.136674 101.44187 -1.28611897
C 233.145403 102.87181 -1.29943981
C 234.40747 99.2837962 -1.19445107
C 234.390283 100.719148 -1.21496503
C 235.702513 101.437614 -1.1020191
C 235.645031 102.900782 -1.16969926
C 236.89702 99.2741356 -1.00788995
C 236.919274 100.720265 -1.03113313
C 238.161644 101.443355 -0.986853293
C 238.146221 102.903165 -0.867415209
C 239.383912 99.291288 -0.859841903
C 239.422466 100.738898 -0.897651693
C 240.61768 101.451261 -0.770299916
C 240.668955 102.910413 -0.752364014
C 241.889049 99.2889102 -0.820954189
C 241.866145 100.718472 -0.779962647
C 243.12061 101.441243 -0.713405192
C 243.152809 102.907477 -0.647215911
C 244.366769 99.2588178 -0.778910393
C 244.402085 100.736715 -0.697856539
C 245.646296 101.476157 -0.721023501
C 245.646928 102.893803 -0.6718835
C 246.837087 99.2833409 -0.869855153
C 246.875459 100.722866 -0.808840479
C 248.13601 101.436084 -0.884281991
C 248.132812 102.887892 -0.814805274
C 0.00686414481 103.616735 -0.793329636
C 249.4022 105.007585 -0.665771875
C 1.26781234 105.737437 -0.649760058
C 1.23032621 107.20128 -0.645708675
C 2.4855593 103.590101 -0.806413237
C 2.52293249 105.007821 -0.798915061
C 3.74067368 105.784044 -0.953567175
C 3.68833244 107.232259 -0.887640519
C 4.97266446 103.624983 -1.0083674
C 4.95251188 105.07345 -1.06989906
C 6.24241534 105.84296 -1.0714385
C 6.22241038 107.271861 -1.06213111
C 7.47107071 103.678393 -1.12377287
C 7.48936835 105.103493 -1.09820361
C 8.74185876 105.796363 -1.20545033
C 8.70481165 107.230264 -1.24244912
C 9.98901201 103.640722 -1.13125414
C 9.98703209 105.096313 -1.25030006
C 11.2314831 105.833826 -1.35918121
C 11.2168892 107.271071 -1.41643874
C 12.4968816 103.65029 -1.24168674
C 12.4704041 105.076709 -1.38890694
C 13.6982072 105.764117 -1.45637249
C 13.7040831 107.21673 -1.44605935
C 15.004404 103.6295 -1.25607644
C 14.9521065 105.066957 -1.40101745
C 16.1949541 105.82638 -1.45325877
C 16.1650596 107.244638 -1.36772204
C 17.4826158 103.645083 -1.34904659
C 17.4516414 105.096079 -1.44603807
C 18.6965307 105.791907 -1.50288656
C 18.6769129 107.226146 -1.42642728
C 19.9487987 103.677161 -1.49881215
C 19.9335357 105.088353 -1.5174337
C 21.207293 105.809696 -1.53358247
C 21.1730444 107.20596 -1.44838708
C 22.4328468 103.724824 -1.41633989
C 22.4237968 105.125483 -1.49675913
C 23.6426866 105.818802 -1.32671474
C 23.6445735 107.269043 -1.28529034
C 24.8980308 103.660488 -1.61286896
C 24.8797821 105.109371 -1.4737108
C 26.1552867 105.805196 -1.49636465
C 26.1627066 107.246294 -1.43111024
C 27.4213798 103.692446 -1.58527783
C 27.4041113 105.10932 -1.57536063
C 28.643972 105.784649 -1.59000273
C 28.6130726 107.234513 -1.51467686
C 29.8680862 103.619641 -1.51882045
C 29.8665941 105.074668 -1.5264247
C 31.0833401 105.812734 -1.55485526
C 31.0646268 107.229576 -1.62015475
C 32.3845298 103.659184 -1.46045299
C 32.3516382 105.082852 -1.47173428
C 33.5635435 105.784058 -1.46145256
C 33.6246463 107.220818 -1.57935085
C 34.8912271 103.647196 -1.31423457
C 34.8997079 105.085638 -1.38539028
C 36.129681 105.827152 -1.31446805
C 36.1427183 107.244461 -1.40630823
C 37.3775294 103.677503 -1.11692269
C 37.3490827 105.11633 -1.15303943
C 38.6161343 105.828367 -1.12524438
C 38.6540207 107.251775 -1.20119846
C 39.8581264 103.646045 -1.05977109
C 39.877021 105.062524 -1.07758091
C 41.0932195 105.795913 -1.06744963
C 41.1348969 107.260764 -1.0794506
C 42.3580241 103.669818 -1.08304609
C 42.3683357 105.119378 -1.03943267
C 43.6217675 105.839154 -1.15046067
C 43.60023 107.262709 -1.18937761
C 44.8136148 103.638305 -1.26191355
C 44.8535659 105.103067 -1.25673031
C 46.0950946 105.810766 -1.24315203
C 46.1025529 107.282258 -1.11164252
C 47.3491212 103.648111 -1.09162037
C 47.3548324 105.04463 -1.16038397
C 48.5820395 105.818028 -1.12479141
C 48.591192 107.268464 -1.10862412
C 49.8277762 103.680817 -1.12085601
C 49.8467435 105.12293 -1.12959039
C 51.1264122 105.823976 -1.05660189
C 51.1332467 107.298816 -0.999949041
C 52.3852695 103.659719 -1.05343343
C 52.3534601 105.092461 -0.987905125
C 53.5568548 105.82379 -0.87173783
C 53.5570666 107.263227 -0.803338149
C 54.8969645 103.653752 -0.867088424
C 54.8264396 105.094323 -0.770773562
C 56.0995831 105.829442 -0.581269893
C 56.0447755 107.237048 -0.447808347
C 57.3459735 103.630408 -0.674817694
C 57.365069 105.100164 -0.553251698
C 58.5861969 105.847227 -0.334236944
C 58.5423214 107.252089 -0.23918545
C 59.8171935 103.672028 -0.398586912
C 59.8361253 105.111798 -0.337689431
C 61.0521845 105.800688 -0.264100863
C 61.042499 107.226194 -0.276027036
C 62.3456089 103.690017 -0.346962483
C 62.3365628 105.103387 -0.287153259
C 63.5859031 105.786578 -0.329662072
C 63.5491319 107.2651 -0.327662276
C 64.777779 103.659366 -0.413565585
C 64.810372 105.084917 -0.362019023
C 66.0369 105.807224 -0.332611761
C 66.0644736 107.209894 -0.210800968
C 67.280272 103.663095 -0.476807781
C 67.3122233 105.109187 -0.382669603
C 68.5339634 105.851485 -0.279474188
C 68.5188761 107.253442 -0.0790329348
C 69.7552982 103.68388 -0.455334134
C 69.7874851 105.137796 -0.325935424
C 71.0345367 105.822386 -0.248487975
C 71.0447998 107.236436 -0.129225915
C 72.2316037 103.63977 -0.437427336
C 72.2780945 105.105899 -0.361164982
C 73.5323922 105.845839 -0.206523731
C 73.5338348 107.279421 -0.101998505
C 74.7450112 103.631549 -0.258322259
C 74.734545 105.106161 -0.107162279
C 75.9849331 105.745283 0.125505686
C 75.9766381 107.251938 0.0864996412
C 77.2543983 103.655697 -0.0199875528
C 77.2526784 105.07971 0.132322374
C 78.5201653 105.760698 0.267344776
C 78.5263743 107.218039 0.319600088
C 79.7516432 103.602306 0.384916183
C 79.7902781 105.058265 0.43204449
C 81.0018051 105.796047 0.599928318
C 81.0210418 107.225403 0.645694255
C 82.2308825 103.619553 0.537240634
C 82.2340124 105.076679 0.632436086
C 83.5310137 105.755358 0.577446472
C 83.5317103 107.228058 0.686624854
C 84.7580943 103.589003 0.493485902
C 84.7755883 105.040856 0.499916172
C 86.0108104 105.779685 0.382619695
C 86.0135265 107.180488 0.522730282
C 87.2632442 103.600139 0.26890241
C 87.2741624 105.060716 0.376531434
C 88.5027891 105.782045 0.465150252
C 88.5188892 107.228094 0.498107801
C 89.7522122 103.623546 0.156192579
C 89.7702381 105.056252 0.344824882
C 91.0197284 105.82095 0.325903613
C 91.0151953 107.238174 0.37157369
C 92.2427701 103.611969 0.103289215
C 92.2199104 105.050265 0.236049926
C 93.5038303 105.759085 0.237070664
C 93.4971309 107.223343 0.310277902
C 94.6998456 103.615992 0.0204973414
C 94.7196415 105.031758 0.100215236
C 95.9806398 105.858258 0.0888274457
C 95.9857429 107.307519 0.167329386
C 97.1825401 103.719664 0.0323587597
C 97.2308373 105.111451 0.00259932816
C 98.4992739 105.778023 -0.0197767661
C 98.5095892 107.234524 -0.0155053304
C 99.7370567 103.651394 0.0921386581
C 99.7933885 105.08055 0.0929031738
C 101.020607 105.83581 0.187297444
C 100.995061 107.249863 0.169227658
C 102.269924 103.660139 0.293825925
C 102.269401 105.141224 0.370162247
C 103.535108 105.871318 0.344824341
C 103.510886 107.281531 0.359359099
C 104.800866 103.647002 0.2506464
C 104.780128 105.091765 0.325108296
C 106.03128 105.784371 0.260003648
C 105.999046 107.204212 0.358878398
C 107.275133 103.64573 0.0420685056
C 107.290486 105.066381 0.186750297
C 108.515511 105.806762 0.233328286
C 108.499178 107.25058 0.303350589
C 109.770696 103.654866 -0.179040765
C 109.740539 105.098228 0.0816431785
C 110.996867 105.8173 0.0337749423
C 110.973385 107.258297 0.177595236
C 112.266361 103.659202 -0.038609261
C 112.267157 105.133155 0.0465725594
C 113.49505 105.862708 0.0222314661
C 113.486645 107.288607 0.0699806259
C 114.754418 103.691653 -0.185884776
C 114.726899 105.154548 -0.151258733
C 115.999802 105.842749 -0.193893762
C 115.98682 107.291977 -0.0807360149
C 117.224329 103.694859 -0.382632762
C 117.241299 105.123337 -0.319386127
C 118.516987 105.817218 -0.267695307
C 118.521832 107.264893 -0.0869786537
C 119.736377 103.694076 -0.457667745
C 119.732848 105.114359 -0.394736412
C 120.98499 105.85851 -0.34176071
C 120.98862 107.286829 -0.127030531
C 122.248103 103.692708 -0.433095443
C 122.225098 105.140795 -0.375840804
C 123.472524 105.803635 -0.116054827
C 123.521548 107.267392 0.0378676513
C 124.697291 103.639589 -0.385147962
C 124.704893 105.092402 -0.158113533
C 125.963863 105.823189 -0.0877931278
C 125.989578 107.277756 0.0411087705
C 127.247562 103.684229 -0.53330886
C 127.215184 105.102607 -0.331557415
C 128.460338 105.90011 -0.423933534
C 128.527092 107.310917 -0.260725138
C 129.713222 103.716251 -0.69070666
C 129.719015 105.170156 -0.613340595
C 130.984756 105.889672 -0.614099849
C 131.011814 107.339231 -0.531429283
C 132.166257 103.720483 -0.653425061
C 132.214715 105.155065 -0.657426493
C 133.473618 105.909455 -0.683997242
C 133.488505 107.331492 -0.620167698
C 134.648093 103.723302 -0.613999393
C 134.730862 105.157447 -0.665979114
C 135.957244 105.876341 -0.724033745
C 136.004609 107.318687 -0.713188169
C 137.160487 103.762028 -0.737432053
C 137.211433 105.170483 -0.797264055
C 138.483176 105.913312 -0.82293119
C 138.495628 107.349974 -0.727566584
C 139.72731 103.738326 -0.802812225
C 139.747087 105.20431 -0.87472909
C 140.969366 105.881014 -0.782214659
C 140.985239 107.326462 -0.640181566
C 142.216811 103.770007 -0.735520054
C 142.261883 105.155247 -0.6847219
C 143.472116 105.868897 -0.580244654
C 143.505245 107.317879 -0.49795924
C 144.736157 103.719326 -0.467156145
C 144.716089 105.185552 -0.459465768
C 145.976341 105.893161 -0.376622347
C 145.965624 107.31285 -0.350220323
C 147.176762 103.732474 -0.176481775
C 147.238171 105.17171 -0.227156602
C 148.501946 105.921031 -0.256662758
C 148.488247 107.360461 -0.316652085
C 149.701214 103.732227 -0.207634604
C 149.722549 105.178678 -0.210870057
C 150.977645 105.907249 -0.221143989
C 150.954363 107.34959 -0.265771013
C 152.221977 103.726876 -0.273483152
C 152.187169 105.214553 -0.230329518
C 153.455913 105.914255 -0.258081206
C 153.455076 107.314374 -0.277758558
C 154.661451 103.76824 -0.401805362
C 154.683461 105.175135 -0.428705427
C 155.921898 105.895289 -0.475668422
C 155.903665 107.357061 -0.40497487
C 157.184344 103.756734 -0.435448485
C 157.174389 105.165928 -0.429161515
C 158.40885 105.86924 -0.628980743
C 158.403891 107.280438 -0.55376544
C 159.646122 103.691458 -0.563236194
C 159.644258 105.099342 -0.578352715
C 160.888653 105.839904 -0.569803197
C 160.90442 107.301245 -0.369881887
C 162.152494 103.644968 -0.578794141
C 162.154018 105.083619 -0.570492737
C 163.391385 105.760396 -0.380023051
C 163.411303 107.208393 -0.178504214
C 164.64751 103.638771 -0.57152562
C 164.615831 105.073778 -0.410197906
C 165.87807 105.751074 -0.348038496
C 165.878439 107.181418 -0.290234151
C 167.154447 103.691324 -0.577281606
C 167.136914 105.096158 -0.434019018
C 168.388423 105.786632 -0.346523449
C 168.419676 107.239299 -0.284081157
C 169.652227 103.659843 -0.532615894
C 169.619846 105.048398 -0.339683812
C 170.849462 105.785349 -0.225387026
C 170.84378 107.26246 -0.0995780939
C 172.112524 103.650718 -0.533338957
C 172.106448 105.07803 -0.349422828
C 173.3483 105.78268 -0.317941805
C 173.365069 107.218153 -0.171523692
C 174.660252 103.712279 -0.540981734
C 174.590041 105.13499 -0.438077888
C 175.857461 105.871333 -0.371336077
C 175.839201 107.310204 -0.361838231
C 177.110744 103.698516 -0.374514464
C 177.117337 105.183375 -0.344629758
C 178.380317 105.831492 -0.335823963
C 178.335322 107.265173 -0.2970784
C 179.584774 103.649787 -0.431410991
C 179.612825 105.094833 -0.371088223
C 180.817319 105.810222 -0.356473277
C 180.820567 107.241721 -0.27967878
C 182.089599 103.680649 -0.69967982
C 182.081503 105.110708 -0.62974081
C 183.308871 105.826537 -0.67117633
C 183.292127 107.269361 -0.544143391
C 184.564202 103.652581 -0.847237161
C 184.573544 105.103707 -0.896775514
C 185.827083 105.811032 -0.898864491
C 185.795033 107.279504 -0.767742467
C 187.10538 103.660828 -0.948853795
C 187.09503 105.09994 -0.969621612
C 188.333604 105.808122 -0.939953395
C 188.350213 107.202564 -0.844900081
C 189.5796 103.581153 -1.00508876
C 189.583202 105.02338 -0.988270025
C 190.839807 105.782466 -0.920531252
C 190.812198 107.2145 -0.810037189
C 191.99721 103.583703 -0.925612116
C 192.060489 104.997442 -0.896672685
C 193.298666 105.773395 -0.80640834
C 193.26067 107.23798 -0.810471269
C 194.499703 103.625049 -0.641607008
C 194.508629 105.04997 -0.682209486
C 195.786652 105.792506 -0.699512034
C 195.743784 107.206256 -0.790907255
C 196.966432 103.634391 -0.535646595
C 197.034809 105.079175 -0.614077974
C 198.230865 105.789999 -0.697968125
C 198.245497 107.227127 -0.835354175
C 199.499429 103.649396 -0.564734131
C 199.496862 105.108265 -0.647920985
C 200.749719 105.819356 -0.71850689
C 200.745668 107.272673 -0.944469557
C 201.960738 103.661525 -0.603324241
C 202.000213 105.073306 -0.723850987
C 203.225857 105.766241 -0.973051053
C 203.203751 107.183782 -1.07469993
C 204.455049 103.556908 -0.832904153
C 204.47033 105.018586 -0.966532762
C 205.665549 105.770531 -1.13953981
C 205.761442 107.202313 -1.278557
C 206.956002 103.58995 -0.941263946
C 206.943749 105.025273 -1.09449749
C 208.182977 105.753789 -1.2062261
C 208.245391 107.218439 -1.36195299
C 209.431998 103.60501 -1.06773082
C 209.435301 105.086987 -1.10325854
C 210.732253 105.811831 -1.19381318
C 210.744539 107.236145 -1.32049145
C 211.935044 103.629224 -1.12637825
C 211.968564 105.078365 -1.15062634
C 213.24528 105.802208 -1.13636758
C 213.213951 107.242084 -1.24483978
C 214.469064 103.590195 -0.9563462
C 214.458754 105.020764 -1.09609496
C 215.754664 105.705604 -1.16759648
C 215.769097 107.190431 -1.23822116
C 216.951583 103.585456 -1.03348077
C 216.972391 105.022114 -1.11088316
C 218.181042 105.769757 -1.1906699
C 218.173975 107.173203 -1.29972066
C 219.480442 103.612159 -1.01333033
C 219.439176 105.059058 -1.0881644
C 220.688862 105.80714 -1.18448276
C 220.701116 107.227494 -1.23836354
C 221.963804 103.597255 -1.17356391
C 221.989263 105.053361 -1.22751848
C 223.213975 105.786783 -1.27489992
C 223.197659 107.241227 -1.32185832
C 224.462019 103.65123 -1.1778882
C 224.499517 105.08179 -1.20478158
C 225.703659 105.791012 -1.30964477
C 225.746302 107.216055 -1.42859619
C 226.925707 103.654628 -1.2799977
C 226.946926 105.064227 -1.33154169
C 228.192008 105.833238 -1.47353783
C 228.231482 107.27269 -1.57356825
C 229.422409 103.616765 -1.40910199
C 229.473546 105.063544 -1.53355959
C 230.692839 105.791831 -1.52405265
C 230.734975 107.239159 -1.65280092
C 231.920251 103.672201 -1.32758457
C 231.937073 105.074407 -1.38917957
C 233.178169 105.820205 -1.30373344
C 233.204666 107.273685 -1.3955714
C 234.39105 103.658575 -1.20769355
C 234.412895 105.096682 -1.12288828
C 235.670531 105.797583 -0.938786771
C 235.701642 107.213139 -1.01158523
C 236.91536 103.62151 -0.927797987
C 236.887636 105.038912 -0.857770973
C 238.194176 105.739601 -0.711715541
C 238.139988 107.20388 -0.862247855
C 239.422315 103.627734 -0.699456964
C 239.444064 105.061984 -0.639117939
C 240.670281 105.801445 -0.571886402
C 240.633874 107.234848 -0.683284628
C 241.899897 103.63855 -0.695868772
C 241.883418 105.102754 -0.641858011
C 243.161293 105.783946 -0.663035202
C 243.131984 107.192402 -0.613576251
C 244.412516 103.603011 -0.676215342
C 244.401452 105.058072 -0.69188282
C 245.650737 105.726328 -0.662591553
C 245.64797 107.162725 -0.676851055
C 246.906597 103.59922 -0.639079137
C 246.895035 105.01547 -0.601306419
C 248.179593 105.69464 -0.54864725
C 248.168422 107.182421 -0.580153585
C 0.00471808683 107.876794 -0.631585373
C 249.386703 109.361695 -0.607053242
C 1.23213088 110.092297 -0.579381217
C 1.21562842 111.534408 -0.702042415
C 2.42442344 107.947145 -0.783403206
C 2.46648818 109.373972 -0.753393909
C 3.68195499 110.089804 -1.02673478
C 3.73577803 111.543675 -0.969988285
C 4.96443911 107.961098 -1.08407746
C 4.9360524 109.37943 -1.18188902
C 6.18141778 110.151079 -1.22612601
C 6.1817579 111.614668 -1.28693941
C 7.47109855 107.969512 -1.1509937
C 7.42029451 109.427953 -1.27940693
C 8.65850504 110.127784 -1.44999425
C 8.65570103 111.563921 -1.55077068
C 9.9271636 107.956844 -1.40453127
C 9.90511276 109.40899 -1.40508752
C 11.1621422 110.108967 -1.49245296
C 11.1251711 111.572568 -1.61344496
C 12.4646959 107.969574 -1.50203089
C 12.4180182 109.401954 -1.52180702
C 13.680453 110.102982 -1.47549784
C 13.69217 111.506585 -1.46192576
C 14.9319207 107.946232 -1.40628905
C 14.9578361 109.355892 -1.51211051
C 16.1964755 110.132901 -1.46113492
C 16.2180564 111.555867 -1.48328861
C 17.4236634 107.904226 -1.32278734
C 17.4402851 109.355914 -1.41481291
C 18.727369 110.11308 -1.44359152
C 18.7292746 111.563303 -1.38339651
C 19.8985256 107.916168 -1.49507594
C 19.9550714 109.389888 -1.39167782
C 21.1853709 110.100728 -1.23728747
C 21.1805165 111.565819 -1.26361782
C 22.4316395 107.994613 -1.31751866
C 22.4436021 109.431732 -1.28079375
C 23.7028962 110.133178 -1.34152977
C 23.6920883 111.572324 -1.39163872
C 24.9140617 107.948339 -1.31123844
C 24.9132405 109.430823 -1.30586867
C 26.1696512 110.121558 -1.39824343
C 26.204335 111.53534 -1.39179342
C 27.3990629 107.949999 -1.42541633
C 27.4071162 109.441779 -1.43513061
C 28.6406119 110.205546 -1.5949363
C 28.6384913 111.652505 -1.5643793
C 29.8450802 107.955326 -1.62022169
C 29.8543067 109.43432 -1.64647981
C 31.1253728 110.165332 -1.62674317
C 31.1351517 111.598297 -1.64892413
C 32.31443 107.94617 -1.65176639
C 32.3828868 109.396818 -1.5443588
C 33.633414 110.095104 -1.46651546
C 33.5849116 111.577361 -1.38907843
C 34.9153233 107.936441 -1.459971
C 34.8756485 109.384958 -1.43099864
C 36.112826 110.109661 -1.31989612
C 36.1324319 111.544626 -1.33715584
C 37.3875307 107.929502 -1.30877712
C 37.4081792 109.413362 -1.2320357
C 38.6303264 110.156653 -1.16957876
C 38.5802752 111.590633 -1.13947741
C 39.8829242 107.982995 -1.1628574
C 39.8517192 109.44835 -1.14746992
C 41.130766 110.176608 -1.10503146
C 41.1379392 111.588183 -1.08903829
C 42.3590786 107.953121 -1.15919478
C 42.3355714 109.432182 -1.06233712
C 43.6195232 110.129296 -0.954794087
C 43.6070366 111.614502 -0.91244786
C 44.8594649 107.969685 -1.09994705
C 44.8493935 109.413911 -0.962769079
C 46.1054667 110.109028 -0.95619025
C 46.08787 111.5893 -0.957917784
C 47.3587026 107.967405 -1.04685821
C 47.3470467 109.427344 -1.01102051
C 48.5412981 110.168559 -0.888284806
C 48.5789538 111.595091 -0.812059766
C 49.9031013 107.998964 -0.930871448
C 49.844773 109.447167 -0.859860331
C 51.0767944 110.181415 -0.749422744
C 51.0712002 111.583743 -0.605530999
C 52.3402292 108.040291 -0.85760113
C 52.3473172 109.463395 -0.734168555
C 53.6024571 110.161014 -0.624391391
C 53.5768575 111.603772 -0.519048372
C 54.8417657 107.948344 -0.618425028
C 54.8140309 109.437833 -0.503295819
C 56.0393995 110.158579 -0.349292405
C 56.0190878 111.604433 -0.283964132
C 57.2743636 107.960875 -0.27653906
C 57.3051664 109.440252 -0.323071324
C 58.5898069 110.16535 -0.287265046
C 58.5856423 111.605492 -0.268694681
C 59.8037263 107.943399 -0.198238441
C 59.815678 109.379635 -0.225266626
C 61.0313268 110.144842 -0.18095227
C 61.0692738 111.553909 -0.197409796
C 62.2868019 107.928562 -0.251817902
C 62.3263664 109.411757 -0.135427911
C 63.6041634 110.143225 -0.159639086
C 63.6156887 111.610408 -0.172934227
C 64.8379047 107.972697 -0.307243035
C 64.8525772 109.420531 -0.274207077
C 66.0555819 110.135111 -0.260206884
C 66.0890174 111.561393 -0.265416234
C 67.2681469 108.001393 -0.0711335308
C 67.3011057 109.407851 -0.128799928
C 68.572651 110.134933 -0.078549732
C 68.5097492 111.561411 -0.204246886
C 69.7881183 107.945964 -0.00877249916
C 69.785929 109.384481 0.0494156317
C 71.0565607 110.140687 0.0193542189
C 71.0707557 111.567184 -0.0759437299
C 72.2786432 108.00727 -0.0861473697
C 72.3112793 109.39516 -0.0239921199
C 73.5469605 110.127855 0.0139741983
C 73.5540653 111.558366 0.0547383184
C 74.7771416 108.023996 0.0500591257
C 74.7662 109.450932 0.142865574
C 76.0009413 110.127239 0.214617589
C 76.0942482 111.572782 0.296211928
C 77.2597121 107.952017 0.174023955
C 77.2318206 109.42377 0.285289889
C 78.526205 110.098241 0.501830562
C 78.5494066 111.534085 0.514921681
C 79.7804068 107.937529 0.541090788
C 79.7516071 109.376087 0.640280838
C 81.0281584 110.134397 0.795653896
C 81.0166235 111.566694 0.780258452
C 82.2864104 107.945889 0.711826627
C 82.2766807 109.362034 0.767036576
C 83.5070798 110.104208 0.687322445
C 83.4883989 111.580036 0.659774427
C 84.8017436 107.949144 0.676746071
C 84.784861 109.411552 0.661222767
C 86.0440251 110.132074 0.590551913
C 86.0142238 111.55745 0.493834876
C 87.2379228 107.949322 0.580857454
C 87.2761301 109.414277 0.597684156
C 88.5444302 110.110841 0.523613952
C 88.5126128 111.559952 0.503643637
C 89.802505 107.9457 0.421496862
C 89.7636922 109.362829 0.448390248
C 90.999351 110.107689 0.383260291
C 91.0483786 111.575447 0.272604704
C 92.2939497 107.975449 0.387746044
C 92.2380103 109.414754 0.348661169
C 93.4613735 110.133094 0.33346085
C 93.548324 111.587798 0.356938904
C 94.7117369 107.990895 0.174497152
C 94.7220643 109.414469 0.222077288
C 95.9923512 110.124269 0.188269239
C 96.0287339 111.594534 0.231472627
C 97.2323825 108.001718 0.0266700331
C 97.2588546 109.394955 0.017243544
C 98.5035239 110.102731 0.028261953
C 98.5081964 111.576421 0.00133863039
C 99.7649353 107.948047 0.052012913
C 99.7900355 109.40452 0.006601018
C 101.046039 110.138959 0.113864991
C 101.043902 111.598397 0.134852778
C 102.229595 107.970537 0.286564254
C 102.277585 109.43818 0.176589691
C 103.503739 110.082649 0.270420941
C 103.523701 111.557553 0.384368707
C 104.745894 107.956018 0.434397956
C 104.768589 109.38172 0.341004045
C 106.024497 110.104072 0.444164093
C 106.040351 111.560211 0.543587481
C 107.25541 107.943255 0.370894111
C 107.289209 109.385256 0.406291284
C 108.550176 110.083217 0.443625602
C 108.551716 111.534666 0.495941323
C 109.741919 107.964191 0.306665771
C 109.798403 109.378464 0.433848841
C 111.040984 110.13078 0.524832226
C 111.051041 111.575719 0.622656651
C 112.227671 108.004471 0.187761365
C 112.273813 109.41585 0.385906932
C 113.507804 110.079276 0.433302927
C 113.536266 111.555768 0.55526634
C 114.737405 108.006546 0.0534762893
C 114.760311 109.412162 0.211624569
C 116.009096 110.105902 0.213271071
C 116.045452 111.575258 0.356011684
C 117.277963 107.985768 -0.0384960616
C 117.267679 109.383673 0.127034666
C 118.562806 110.139017 0.223237226
C 118.529121 111.590893 0.343412126
C 119.757087 107.974791 0.0355276936
C 119.80203 109.430471 0.16565132
C 121.068282 110.137637 0.205421328
C 121.063848 111.583413 0.333733052
C 122.24282 107.994935 0.0639464457
C 122.304173 109.441567 0.176467941
C 123.50744 110.152294 0.247785656
C 123.515541 111.566196 0.348960735
C 124.797023 108.010285 0.128875859
C 124.752265 109.467434 0.250056813
C 125.977123 110.147524 0.244329384
C 126.040228 111.607932 0.300493734
C 127.303872 107.976074 0.0659638532
C 127.300916 109.480124 0.0610853066
C 128.487268 110.231818 -0.125998624
C 128.541001 111.644781 0.10031995
C 129.792219 108.003027 -0.40692227
C 129.756988 109.471293 -0.250949652
C 131.027464 110.168628 -0.165124273
C 130.995461 111.587796 -0.0912988932
C 132.258225 108.084326 -0.498515092
C 132.2659 109.497998 -0.321082593
C 133.499267 110.176544 -0.310996944
C 133.476736 111.618027 -0.262140195
C 134.718393 108.051698 -0.596228357
C 134.726037 109.479291 -0.416565483
C 135.989033 110.193821 -0.326354232
C 136.010797 111.56842 -0.121204492
C 137.247327 108.050572 -0.651854398
C 137.198815 109.459526 -0.412085957
C 138.503266 110.151931 -0.2635638
C 138.474879 111.56501 -0.0171519566
C 139.738689 108.018221 -0.638414935
C 139.749606 109.435438 -0.387890948
C 140.947504 110.128507 -0.31288812
C 140.922152 111.563524 -0.209170266
C 142.199787 107.999076 -0.488973491
C 142.222536 109.442833 -0.371861663
C 143.479744 110.147841 -0.284676734
C 143.476809 111.572121 -0.187358147
C 144.730094 107.976578 -0.35115339
C 144.681469 109.42035 -0.298000054
C 145.95758 110.135652 -0.223258939
C 145.955486 111.571235 -0.158449418
C 147.206578 108.004132 -0.308690751
C 147.161389 109.432473 -0.248085307
C 148.451132 110.13227 -0.258347473
C 148.455257 111.589006 -0.286969103
C 149.710895 108.076469 -0.259805053
C 149.726329 109.50389 -0.253051077
C 150.984703 110.205712 -0.304365868
C 150.96187 111.662474 -0.243322319
C 152.188933 108.031762 -0.316931017
C 152.183098 109.472975 -0.279943166
C 153.402799 110.194142 -0.242515342
C 153.398329 111.624034 -0.226283875
C 154.691327 108.036327 -0.307334723
C 154.652845 109.472299 -0.312626105
C 155.933251 110.165041 -0.265481907
C 155.958846 111.603993 -0.130723295
C 157.160684 108.031361 -0.453895341
C 157.211136 109.468044 -0.346033914
C 158.484605 110.155835 -0.228210775
C 158.404119 111.612142 -0.10946321
C 159.638221 107.984931 -0.359581771
C 159.702315 109.447083 -0.170747621
C 160.949098 110.168342 -0.0610669698
C 160.943061 111.590582 -0.0303242416
C 162.144504 107.965571 -0.164540385
C 162.177042 109.450895 -0.0860282822
C 163.426811 110.145211 -0.129378007
C 163.458855 111.577359 -0.0972551937
C 164.62078 107.939937 -0.198853166
C 164.665545 109.395962 -0.198735256
C 165.900004 110.1195 -0.179243877
C 165.939384 111.560939 -0.114654228
C 167.172245 107.952541 -0.2630493
C 167.118607 109.360025 -0.186827759
C 168.347413 110.102766 -0.0189351559
C 168.379684 111.499419 0.0468982303
C 169.65311 108.018039 -0.136871851
C 169.617144 109.420746 0.00858420466
C 170.915827 110.116341 0.104752204
C 170.887238 111.531183 0.07418829
C 172.118504 107.954222 -0.01469081
C 172.138673 109.378542 0.0642380317
C 173.423601 110.102524 -0.0119642967
C 173.391677 111.565781 -0.0291772445
C 174.57747 107.991969 -0.181302404
C 174.612857 109.406473 -0.184900487
C 175.849647 110.109872 -0.264995513
C 175.869877 111.594538 -0.310073175
C 177.063398 107.960551 -0.363486367
C 177.085784 109.429764 -0.399053735
C 178.32839 110.130353 -0.46073261
C 178.3437 111.58221 -0.475100553
C 179.578946 107.961595 -0.331132266
C 179.599593 109.398341 -0.359467713
C 180.850871 110.10268 -0.333665367
C 180.850404 111.563591 -0.320938713
C 182.049188 107.981669 -0.346931792
C 182.071243 109.444276 -0.391972445
C 183.335727 110.143304 -0.379654412
C 183.41073 111.597198 -0.25143367
C 184.577612 108.008973 -0.629034937
C 184.58109 109.404876 -0.538641211
C 185.826271 110.130267 -0.648884695
C 185.812665 111.569552 -0.631134766
C 187.106718 107.945163 -0.790607972
C 187.044039 109.383941 -0.69376183
C 188.291842 110.133269 -0.773930633
C 188.308388 111.579819 -0.699377738
C 189.568594 107.927532 -0.787138471
C 189.527463 109.386305 -0.820036992
C 190.791539 110.154117 -0.73468299
C 190.801996 111.594134 -0.614943458
C 192.03889 107.961163 -0.717329957
C 192.076238 109.435848 -0.752594782
C 193.284787 110.122315 -0.745558738
C 193.308293 111.573734 -0.623049634
C 194.482859 107.955133 -0.817273888
C 194.501686 109.394791 -0.841027381
C 195.759164 110.083498 -0.876255839
C 195.737737 111.564167 -0.738798888
C 197.013976 107.932673 -0.876590147
C 196.975535 109.386337 -0.956936452
C 198.170915 110.120043 -1.045851
C 198.219704 111.578731 -0.967369311
C 199.486354 107.974694 -1.03968987
C 199.462349 109.413732 -1.16682279
C 200.717251 110.096844 -1.18107616
C 200.785208 111.539018 -1.10244121
C 201.977921 107.970587 -1.03640602
C 201.985725 109.387315 -1.08511468
C 203.268116 110.114459 -1.11316823
C 203.269725 111.531225 -0.974287494
C 204.493452 107.947734 -1.26688657
C 204.450963 109.365286 -1.21313963
C 205.696566 110.05215 -1.3184754
C 205.701347 111.516304 -1.22649804
C 206.979369 107.911483 -1.31430046
C 206.971067 109.366679 -1.29245199
C 208.188912 110.080549 -1.31052191
C 208.202928 111.550166 -1.32270724
C 209.485526 107.92662 -1.3979452
C 209.477405 109.340586 -1.32864
C 210.720333 110.075069 -1.3317678
C 210.697007 111.529939 -1.27344879
C 211.965198 107.949225 -1.3528595
C 211.960371 109.371965 -1.36336513
C 213.246066 110.033889 -1.32225112
C 213.248151 111.542962 -1.31282561
C 214.482736 107.895866 -1.32125341
C 214.458714 109.308232 -1.4071226
C 215.714501 110.111771 -1.45529747
C 215.695297 111.528151 -1.49497934
C 216.954326 107.954948 -1.31370476
C 216.94006 109.386733 -1.43008457
C 218.193297 110.04133 -1.45064762
C 218.20781 111.488796 -1.45369977
C 219.468105 107.909551 -1.32719973
C 219.455837 109.350162 -1.47026282
C 220.724384 110.024889 -1.40702152
C 220.733284 111.449947 -1.44788987
C 221.947153 107.911381 -1.34427043
C 221.984789 109.351019 -1.32221945
C 223.222862 110.145077 -1.35950104
C 223.256567 111.532263 -1.36433874
C 224.467683 107.920666 -1.35127761
C 224.473003 109.399037 -1.37801986
C 225.727456 110.097646 -1.38044349
C 225.704117 111.524453 -1.44541132
C 226.970514 107.974715 -1.50196772
C 226.984963 109.388518 -1.48955703
C 228.238339 110.083613 -1.54598942
C 228.252434 111.573015 -1.53718906
C 229.50127 107.97399 -1.61330318
C 229.507627 109.390307 -1.56695706
C 230.723011 110.133242 -1.59272316
C 230.694969 111.551445 -1.61446217
C 231.99404 107.976445 -1.58185557
C 231.998019 109.419812 -1.58044034
C 233.293551 110.173318 -1.53313107
C 233.279384 111.595924 -1.57755328
C 234.497704 107.974055 -1.19042607
C 234.510138 109.418554 -1.30353135
C 235.727024 110.167536 -1.15270308
C 235.719977 111.592848 -1.18167473
C 236.925967 107.962425 -0.925368419
C 236.958661 109.391854 -1.01028676
C 238.22465 110.11146 -0.961480052
C 238.222438 111.560812 -1.00784575
C 239.407788 107.986491 -0.838268923
C 239.444362 109.374807 -0.953661529
C 240.646303 110.090766 -0.885196664
C 240.702889 111.541078 -0.866912031
C 241.922152 107.943235 -0.754458796
C 241.90285 109.366564 -0.795609826
C 243.167102 110.089333 -0.699292645
C 243.209585 111.513705 -0.633017354
C 244.41424 107.886167 -0.541734051
C 244.400416 109.323604 -0.516761407
C 245.62993 110.024782 -0.523344078
C 245.635725 111.488461 -0.515870278
C 246.916035 107.92381 -0.617492858
C 246.90035 109.338836 -0.599955802
C 248.119811 110.078773 -0.609317562
C 248.14329 111.50406 -0.584571688
C 249.41418 112.247229 -0.682046942
C 0.0108475082 113.690274 -0.574213111
C 1.23872974 114.435004 -0.604581446
C 1.21227885 115.860251 -0.50182791
C 2.48026227 112.24203 -0.808775766
C 2.48130494 113.69054 -0.79021134
C 3.70029795 114.436324 -0.903012276
C 3.6794821 115.860214 -0.720026948
C 4.92663621 112.322503 -1.18169444
C 4.9199012 113.734152 -1.21022079
C 6.14963688 114.460482 -1.21774416
C 6.16618902 115.860707 -1.16915805
C 7.40959683 112.326046 -1.46635397
C 7.40495734 113.751946 -1.36598869
C 8.65426317 114.486316 -1.37990891
C 8.68491117 115.938828 -1.26918281
C 9.88775148 112.302503 -1.52029623
C 9.91875221 113.742009 -1.4493205
C 11.1742569 114.479296 -1.37226766
C 11.1634662 115.8638 -1.24892969
C 12.4080108 112.262184 -1.46774806
C 12.418605 113.749136 -1.37671836
C 13.6621235 114.421778 -1.2921629
C 13.6779195 115.886398 -1.22332555
C 14.9030987 112.267939 -1.46144058
C 14.9231571 113.693668 -1.40995053
C 16.1841677 114.443714 -1.35442667
C 16.1487477 115.881539 -1.27779301
C 17.4197672 112.303718 -1.49460007
C 17.3828209 113.738217 -1.38942062
C 18.6560152 114.454733 -1.34273601
C 18.6591285 115.887772 -1.30018493
C 19.9320171 112.264785 -1.28959835
C 19.9258928 113.724082 -1.29337292
C 21.233516 114.388273 -1.35850318
C 21.1247681 115.849947 -1.42456322
C 22.4618659 112.262158 -1.34179114
C 22.4678904 113.682827 -1.3822181
C 23.683236 114.432604 -1.49283229
C 23.6201003 115.83605 -1.51431613
C 24.9651418 112.276974 -1.41783921
C 24.9518018 113.739333 -1.50878896
C 26.1890181 114.442716 -1.56424134
C 26.1899723 115.887188 -1.49713777
C 27.4046054 112.317623 -1.44462282
C 27.4112048 113.743947 -1.53006416
C 28.6862729 114.473448 -1.55065874
C 28.6546018 115.907006 -1.49737646
C 29.9021177 112.318407 -1.63063039
C 29.8833172 113.723191 -1.56472351
C 31.0678178 114.446527 -1.43458969
C 31.0992066 115.878955 -1.26004611
C 32.3765174 112.276 -1.4571318
C 32.3615037 113.687622 -1.40796864
C 33.5961976 114.43989 -1.22117512
C 33.565445 115.897144 -1.071071
C 34.8636985 112.251565 -1.25787492
C 34.8167386 113.698337 -1.26628876
C 36.068695 114.408771 -1.1796163
C 36.1082072 115.875881 -1.15738482
C 37.3260695 112.260811 -1.29031944
C 37.3079978 113.708486 -1.2743236
C 38.5572245 114.39943 -1.1754276
C 38.5868223 115.801439 -1.03256309
C 39.8665537 112.296693 -1.10479323
C 39.8425059 113.751868 -1.0975316
C 41.0946242 114.464315 -0.917504687
C 41.0607348 115.900584 -0.865980313
C 42.357927 112.314865 -0.94254638
C 42.3708295 113.74144 -0.879891944
C 43.6030854 114.488488 -0.830259225
C 43.5701742 115.92735 -0.851413815
C 44.8389478 112.30692 -0.912762889
C 44.7860196 113.70864 -0.809538052
C 46.0662962 114.437971 -0.725941637
C 46.0999788 115.895324 -0.803737245
C 47.3312237 112.317348 -0.784588408
C 47.3139125 113.750691 -0.685613052
C 48.5524975 114.438582 -0.683634571
C 48.5346861 115.890962 -0.726077569
C 49.8231327 112.288076 -0.648139478
C 49.7874098 113.708941 -0.629168325
C 51.0425447 114.42784 -0.607162755
C 51.0938236 115.868147 -0.632754103
C 52.3202846 112.308292 -0.586754251
C 52.35981 113.736557 -0.660665982
C 53.546147 114.507386 -0.58341097
C 53.5533396 115.917439 -0.497429597
C 54.8078975 112.314268 -0.455486512
C 54.7939183 113.757966 -0.456619733
C 56.0389491 114.454217 -0.326446019
C 56.0587674 115.868763 -0.336414592
C 57.3719655 112.337887 -0.36402561
C 57.3494675 113.785695 -0.325174979
C 58.5890165 114.49908 -0.302073254
C 58.559097 115.912197 -0.294513976
C 59.8585568 112.296259 -0.224504134
C 59.8095645 113.75273 -0.249109136
C 61.0751816 114.476141 -0.166681129
C 61.0679746 115.908985 -0.278629364
C 62.3187506 112.274572 -0.126401799
C 62.3424117 113.733175 -0.0903756063
C 63.5632296 114.485996 -0.0807048184
C 63.5533631 115.906383 -0.203905704
C 64.8370974 112.318866 -0.192569027
C 64.7969525 113.741327 -0.14339866
C 66.0335097 114.489398 -0.223059107
C 66.0346666 115.895993 -0.18061152
C 67.2977088 112.312745 -0.248485691
C 67.2817405 113.758621 -0.198505918
C 68.5250027 114.46057 -0.0863937697
C 68.5186242 115.913466 0.0487598971
C 69.8220376 112.304983 -0.143440441
C 69.8088854 113.745424 -0.0847620372
C 71.0484656 114.483445 -0.0229577271
C 71.0457775 115.90125 0.131178374
C 72.3364707 112.288172 -0.0156722522
C 72.3141715 113.766083 -0.0337505666
C 73.5636773 114.500076 -0.0190945103
C 73.5786126 115.919307 0.0278524578
C 74.8609276 112.294642 0.154767796
C 74.8086321 113.707006 0.14443796
C 76.0775525 114.451894 0.306059339
C 76.092119 115.911069 0.33508778
C 77.3494342 112.276386 0.441401047
C 77.33651 113.726481 0.389170228
C 78.6044827 114.48153 0.497435804
C 78.5739328 115.900333 0.580268735
C 79.8018504 112.288362 0.673086528
C 79.7796695 113.733462 0.597435514
C 81.0332208 114.461068 0.689077602
C 81.0318074 115.927433 0.723218275
C 82.2741676 112.29486 0.677220522
C 82.2574839 113.691947 0.687054994
C 83.4813617 114.438848 0.835398626
C 83.5149833 115.857104 0.833384413
C 84.762349 112.28977 0.632074237
C 84.7161179 113.706614 0.770587359
C 86.0028423 114.474531 0.771262188
C 86.0721846 115.907234 0.796118107
C 87.2671963 112.288457 0.500632592
C 87.2549069 113.770717 0.560174036
C 88.5185486 114.483284 0.535989078
C 88.5515019 115.932543 0.435088698
C 89.7632405 112.284545 0.408741278
C 89.7941087 113.743962 0.390237978
C 91.0091093 114.521456 0.283652784
C 91.0541175 115.958258 0.27045974
C 92.270448 112.335563 0.257354617
C 92.2457224 113.777361 0.271266749
C 93.5188855 114.496451 0.232735437
C 93.5429131 115.929638 0.251564043
C 94.7983836 112.319453 0.250649193
C 94.7598709 113.725275 0.197736402
C 95.9822287 114.462887 0.218694262
C 96.0289814 115.897913 0.362547357
C 97.3041302 112.304042 0.165102534
C 97.2838917 113.811769 0.183559928
C 98.54479 114.498267 0.201653217
C 98.5337396 115.954987 0.282461266
C 99.7788883 112.297535 0.0665053724
C 99.769933 113.71772 0.182899839
C 101.014091 114.48993 0.278333552
C 100.998945 115.891873 0.36470937
C 102.301921 112.32583 0.249459479
C 102.284001 113.761313 0.337402242
C 103.550245 114.473051 0.428025393
C 103.537772 115.928117 0.53151534
C 104.782011 112.29761 0.471629839
C 104.816526 113.727934 0.422364149
C 106.025313 114.445539 0.644396156
C 106.01526 115.922319 0.62335982
C 107.282812 112.266638 0.577688278
C 107.271809 113.718075 0.607120183
C 108.527865 114.446746 0.60781665
C 108.529405 115.87377 0.550847983
C 109.802508 112.272165 0.642023317
C 109.76829 113.725318 0.697316736
C 111.029618 114.450165 0.61646936
C 110.99141 115.853709 0.529587371
C 112.320701 112.261902 0.683579536
C 112.28392 113.754379 0.662036664
C 113.559459 114.443621 0.573145601
C 113.5436 115.850177 0.44629799
C 114.760939 112.266442 0.392034113
C 114.810533 113.690419 0.429363935
C 116.00945 114.429419 0.32175931
C 116.006117 115.896041 0.377831313
C 117.315711 112.322742 0.380713932
C 117.282904 113.708384 0.354558721
C 118.544186 114.4467 0.404808692
C 118.551806 115.918351 0.505676082
C 119.78763 112.330844 0.359941516
C 119.754237 113.73073 0.420263774
C 120.964516 114.48052 0.440208394
C 121.001835 115.912458 0.495553846
C 122.286513 112.289744 0.413630924
C 122.216875 113.728872 0.460751415
C 123.506575 114.451758 0.560538009
C 123.503964 115.894868 0.614493337
C 124.74619 112.290892 0.381468811
C 124.739125 113.735297 0.546075646
C 125.998215 114.438077 0.520174367
C 126.022482 115.869924 0.569592879
C 127.284627 112.320051 0.280750769
C 127.241636 113.722199 0.402309326
C 128.4672 114.504048 0.418785513
C 128.478623 115.923136 0.577762417
C 129.778147 112.328339 0.0876783622
C 129.780417 113.814921 0.227786753
C 131.028661 114.522864 0.186092824
C 131.028033 115.948089 0.418424869
C 132.260329 112.344162 -0.0871879425
C 132.26657 113.822798 0.00453575047
C 133.513741 114.463263 0.122718638
C 133.508001 115.873251 0.369902469
C 134.791091 112.327535 -0.101655608
C 134.789758 113.746112 0.0289253824
C 135.993309 114.431588 0.134010762
C 135.990916 115.893364 0.367163415
C 137.269889 112.298604 0.0658150243
C 137.243656 113.751858 0.158299816
C 138.455802 114.418122 0.24362496
C 138.513181 115.828571 0.424073899
C 139.727835 112.277186 -0.00647238095
C 139.700692 113.696409 0.117823201
C 140.978219 114.432003 0.167049404
C 140.968967 115.902333 0.419661192
C 142.173904 112.304206 -0.192515477
C 142.218765 113.751467 -0.027110735
C 143.44841 114.425599 -0.00805403139
C 143.492447 115.855797 0.19050465
C 144.717206 112.279155 -0.123555009
C 144.678601 113.69404 -0.160838571
C 145.903996 114.408433 -0.13542104
C 145.907666 115.87107 0.0375392709
C 147.188122 112.268859 -0.13559073
C 147.14113 113.691182 -0.0807171837
C 148.447298 114.46521 -0.0458758144
C 148.389415 115.87883 0.0497072689
C 149.693672 112.375526 -0.295194432
C 149.683916 113.802576 -0.117048665
C 150.909028 114.488965 -0.0859124143
C 150.92133 115.925894 0.00239016141
C 152.172026 112.390964 -0.189409858
C 152.168468 113.783726 -0.11246626
C 153.444183 114.474816 -0.0595194201
C 153.413723 115.907527 0.00505948237
C 154.678435 112.332589 -0.158929859
C 154.668598 113.751374 -0.0589347211
C 155.967529 114.500907 0.142598474
C 155.90364 115.930186 0.203929982
C 157.174355 112.290096 0.00226788713
C 157.175512 113.734845 0.130234746
C 158.482825 114.483107 0.117235315
C 158.469983 115.935838 0.182976807
C 159.672351 112.284147 -0.150241178
C 159.719682 113.734355 -0.0905550146
C 160.946417 114.474019 -0.0795602956
C 160.942753 115.922002 0.0185896252
C 162.243879 112.340734 -0.00912117072
C 162.189477 113.775924 -0.0575350026
C 163.454208 114.4558 -0.155874181
C 163.470296 115.922665 -0.165847218
C 164.666613 112.324941 -0.0834099295
C 164.704057 113.742123 -0.0346907425
C 165.948847 114.443688 0.133293828
C 165.961227 115.876082 0.0717462815
C 167.198849 112.262113 0.0470106159
C 167.189105 113.694295 0.147047013
C 168.45061 114.420186 0.272422688
C 168.441459 115.870201 0.241663482
C 169.634273 112.236668 0.148028964
C 169.669791 113.698148 0.27663933
C 170.915573 114.451234 0.216759735
C 170.904557 115.858457 0.234381439
C 172.139151 112.293849 0.0834003293
C 172.110702 113.761251 0.12300637
C 173.38423 114.473165 0.0630332953
C 173.386094 115.891694 0.0019882108
C 174.64721 112.300093 -0.120126703
C 174.608153 113.762565 -0.154384381
C 175.843601 114.436753 -0.353268544
C 175.87327 115.8747 -0.323832484
C 177.12553 112.317557 -0.481553841
C 177.106332 113.754966 -0.455108859
C 178.354776 114.488101 -0.505354631
C 178.37824 115.912393 -0.576388943
C 179.593561 112.295298 -0.396310391
C 179.629723 113.799231 -0.474726908
C 180.857717 114.520682 -0.383415797
C 180.868448 115.962273 -0.395511557
C 182.114426 112.289136 -0.197915391
C 182.128643 113.76824 -0.264743389
C 183.342983 114.492238 -0.246981349
C 183.351191 115.949108 -0.214311166
C 184.620689 112.299809 -0.360386647
C 184.6381 113.72746 -0.329859995
C 185.837936 114.448113 -0.386072184
C 185.845521 115.873712 -0.183770898
C 187.073143 112.295738 -0.643959908
C 187.093672 113.730691 -0.468368101
C 188.319938 114.497895 -0.368027604
C 188.329935 115.904352 -0.22395347
C 189.571354 112.296887 -0.593217786
C 189.527138 113.751068 -0.425770959
C 190.826455 114.438037 -0.368337603
C 190.807281 115.870584 -0.289999529
C 192.046048 112.32182 -0.504879235
C 192.080368 113.754775 -0.348939389
C 193.338065 114.416712 -0.432879997
C 193.293161 115.908825 -0.273263411
C 194.518202 112.270292 -0.594538024
C 194.535392 113.73439 -0.533208703
C 195.740297 114.52526 -0.623925322
C 195.724993 115.922976 -0.519924108
C 196.966235 112.34813 -0.862863487
C 196.970651 113.800319 -0.7536347
C 198.2422 114.516407 -0.722568951
C 198.228618 115.935998 -0.683561114
C 199.512692 112.296558 -1.05865027
C 199.490677 113.751017 -0.838756288
C 200.749997 114.46527 -0.784126861
C 200.717038 115.881222 -0.795742449
C 202.055375 112.258996 -0.957814354
C 202.048058 113.717074 -0.759415676
C 203.2935 114.428037 -0.848041355
C 203.272274 115.868459 -0.874060094
C 204.487211 112.277053 -1.04765369
C 204.495191 113.697651 -0.995258518
C 205.747042 114.431108 -1.14735973
C 205.787758 115.857601 -0.99506677
C 206.980509 112.248189 -1.32804966
C 206.976015 113.707908 -1.33154278
C 208.252223 114.449416 -1.31208347
C 208.244297 115.864992 -1.06504224
C 209.471625 112.290798 -1.27396597
C 209.479187 113.66441 -1.26271676
C 210.733301 114.426648 -1.18022261
C 210.709611 115.842688 -1.13171353
C 211.95517 112.256433 -1.19643519
C 211.933971 113.652646 -1.23738657
C 213.164849 114.407578 -1.24381302
C 213.214339 115.819894 -1.09790601
C 214.44056 112.259017 -1.42422854
C 214.469912 113.711118 -1.34245057
C 215.687094 114.428426 -1.33397543
C 215.701196 115.853412 -1.23380762
C 216.94116 112.217178 -1.50249874
C 216.898867 113.681368 -1.46609418
C 218.23189 114.406375 -1.40538833
C 218.200718 115.829464 -1.43406108
C 219.469224 112.191587 -1.48922442
C 219.457349 113.651755 -1.5125275
C 220.709108 114.400663 -1.58705196
C 220.702254 115.835604 -1.51959216
C 221.961352 112.215353 -1.37639388
C 221.97926 113.680405 -1.44500114
C 223.235134 114.397112 -1.49433075
C 223.2115 115.839294 -1.47398661
C 224.500431 112.303604 -1.41793761
C 224.511985 113.724463 -1.46836854
C 225.70314 114.475107 -1.42889349
C 225.732115 115.902449 -1.43225778
C 226.992487 112.279369 -1.52388311
C 226.987316 113.7403 -1.51600468
C 228.246677 114.447198 -1.67036431
C 228.263063 115.884332 -1.6757301
C 229.492908 112.326005 -1.51356793
C 229.484672 113.743403 -1.64387717
C 230.746513 114.421467 -1.58682576
C 230.721284 115.860955 -1.53326674
C 232.00219 112.277188 -1.64221607
C 232.029972 113.748516 -1.68731756
C 233.275588 114.446491 -1.48801979
C 233.247726 115.906443 -1.37321796
C 234.520098 112.329106 -1.44513227
C 234.524075 113.754575 -1.4554949
C 235.737665 114.449783 -1.31441949
C 235.732503 115.844704 -1.22389524
C 236.937075 112.304093 -1.16579176
C 236.99154 113.715925 -1.21152832
C 238.248757 114.422346 -1.08727067
C 238.245887 115.898057 -1.02995742
C 239.442686 112.303584 -0.885682644
C 239.535108 113.716223 -0.932174062
C 240.752576 114.46267 -0.723621824
C 240.755092 115.916181 -0.686309418
C 241.95489 112.254413 -0.667847009
C 241.96669 113.720933 -0.665903462
C 243.224222 114.393634 -0.613524902
C 243.231416 115.874055 -0.526269097
C 244.419454 112.236371 -0.475875557
C 244.407864 113.676537 -0.441920299
C 245.65258 114.417644 -0.394643083
C 245.712438 115.867253 -0.424725265
C 246.920214 112.189515 -0.496151492
C 246.946937 113.676456 -0.432439266
C 248.171559 114.41433 -0.497275914
C 248.194389 115.873118 -0.410682856
C 249.393019 116.605914 -0.341585555
C 249.391042 118.051992 -0.377821009
C 1.27162497 118.730902 -0.423625888
C 1.29707252 120.218964 -0.386827287
C 2.45335482 116.573553 -0.513895179
C 2.4928186 118.008967 -0.47922065
C 3.72694685 118.734976 -0.618981398
C 3.73757561 120.202352 -0.590619952
C 4.94698876 116.628471 -0.93008947
C 4.99511692 118.096416 -0.871758482
C 6.20767299 118.786166 -0.942717632
C 6.19133751 120.239863 -0.854060067
C 7.42853169 116.62676 -1.19128535
C 7.46256035 118.039769 -1.09828761
C 8.72013567 118.77157 -1.17680292
C 8.69688827 120.24698 -1.14275838
C 9.94165573 116.616863 -1.25805071
C 9.94703387 118.078004 -1.16934622
C 11.155951 118.789989 -1.2185732
C 11.2096241 120.227191 -1.28376488
C 12.4012995 116.576438 -1.20489831
C 12.4292313 118.038675 -1.19720773
C 13.6688639 118.799002 -1.23756448
C 13.6301419 120.253878 -1.26718455
C 14.9280554 116.659366 -1.26379249
C 14.9183026 118.076608 -1.30560036
C 16.1817911 118.800858 -1.23881301
C 16.1043032 120.291609 -1.29628455
C 17.4002445 116.641047 -1.23262514
C 17.4059505 118.086571 -1.16388139
C 18.6809411 118.756225 -1.18472411
C 18.6562746 120.193702 -1.21952152
C 19.8828383 116.560753 -1.42200365
C 19.9139705 118.059648 -1.32388894
C 21.1859252 118.746516 -1.34363508
C 21.1966961 120.205031 -1.356461
C 22.3850741 116.569495 -1.48215424
C 22.4360758 117.982643 -1.455794
C 23.6310863 118.708316 -1.35486966
C 23.6406485 120.167912 -1.25919422
C 24.8907501 116.541583 -1.40962447
C 24.8796541 118.001118 -1.41957688
C 26.1117083 118.747804 -1.39269851
C 26.1114875 120.17102 -1.3959206
C 27.4204223 116.600921 -1.4848258
C 27.3854778 118.059571 -1.44113218
C 28.6130169 118.808064 -1.32892862
C 28.5972943 120.26008 -1.38024263
C 29.8466859 116.617719 -1.3407531
C 29.8559171 118.062739 -1.22269704
C 31.1100032 118.802962 -1.14180915
C 31.1109988 120.227415 -1.20048643
C 32.3325602 116.616 -1.07207021
C 32.3550111 118.077717 -1.10149229
C 33.6446282 118.757511 -1.123959
C 33.624209 120.192381 -1.16513492
C 34.8212687 116.581454 -1.13234512
C 34.8775248 118.02978 -1.03090409
C 36.1028946 118.746579 -1.12707015
C 36.1042082 120.195539 -1.22691758
C 37.3614765 116.567966 -1.08982188
C 37.3366039 117.992252 -1.0927345
C 38.5931267 118.740571 -0.94631605
C 38.6273954 120.131265 -1.03117917
C 39.8073522 116.578819 -0.860642635
C 39.8412767 117.99323 -0.827290751
C 41.0992208 118.732269 -0.806329839
C 41.112515 120.160015 -0.968973052
C 42.3259228 116.616488 -0.780114646
C 42.3672542 117.998383 -0.682215725
C 43.6270823 118.721459 -0.698424694
C 43.598893 120.185189 -0.752967362
C 44.8575342 116.642903 -0.862663585
C 44.8739271 118.048517 -0.742253828
C 46.1179063 118.771837 -0.755124689
C 46.0934276 120.192847 -0.681649303
C 47.3365667 116.627134 -0.744670299
C 47.3431562 118.029393 -0.759904635
C 48.6312872 118.732959 -0.77171504
C 48.6008792 120.224336 -0.714086298
C 49.85327 116.59066 -0.66333641
C 49.9034853 118.033255 -0.656450255
C 51.1057775 118.729715 -0.558460599
C 51.1533566 120.149311 -0.587395652
C 52.3634072 116.603616 -0.530825297
C 52.3637649 118.008861 -0.527538787
C 53.622033 118.75714 -0.470713905
C 53.5998838 120.194985 -0.539923658
C 54.8186101 116.612882 -0.379675882
C 54.8317295 118.034217 -0.37200341
C 56.0337694 118.761423 -0.247159888
C 56.0829684 120.231247 -0.37314044
C 57.3147269 116.604521 -0.214982336
C 57.3057075 118.008854 -0.151319793
C 58.5320591 118.735042 -0.12661515
C 58.5164311 120.179723 -0.182148967
C 59.8057379 116.627868 -0.316492586
C 59.8254699 118.040652 -0.243485827
C 61.0168924 118.782441 -0.1709213
C 61.0575746 120.19886 -0.0976189157
C 62.2989819 116.595199 -0.288253946
C 62.2462877 118.065695 -0.162777076
C 63.4846258 118.83038 -0.161307994
C 63.5366897 120.250071 -0.256341489
C 64.7724459 116.69434 -0.227941906
C 64.7861536 118.128652 -0.207589803
C 66.0511173 118.832359 -0.139285342
C 66.0547916 120.271039 -0.188404416
C 67.2857492 116.61178 -0.0328810162
C 67.2752656 118.04011 -0.0523292765
C 68.5477535 118.812429 0.0112317365
C 68.5781873 120.263011 -0.148743805
C 69.805338 116.657014 0.156714656
C 69.7975389 118.109148 0.0461068622
C 71.0445424 118.826611 0.0408798897
C 71.064524 120.247769 -0.0978596342
C 72.29616 116.661851 0.0652573738
C 72.3012527 118.126747 0.0872584207
C 73.5632698 118.772093 0.104835396
C 73.5431027 120.220678 -0.0125386917
C 74.8353165 116.64395 0.158738455
C 74.7932726 118.111988 0.147733401
C 76.0590393 118.754197 0.237002973
C 76.055218 120.209074 0.192576267
C 77.2980168 116.600439 0.53852249
C 77.2893632 118.057059 0.411754794
C 78.5700294 118.800441 0.490762072
C 78.580379 120.177767 0.412795475
C 79.7731849 116.656685 0.714857165
C 79.7742001 118.060079 0.665917497
C 81.0362462 118.788885 0.773155611
C 81.044329 120.24447 0.593314222
C 82.2649601 116.6366 0.764560907
C 82.2968555 118.13771 0.779787582
C 83.5738021 118.784181 0.752168607
C 83.5608033 120.253738 0.617055099
C 84.8235962 116.58268 0.813795527
C 84.793569 118.071617 0.723750794
C 86.0406436 118.797254 0.580701909
C 86.0336958 120.230989 0.517401539
C 87.3232505 116.66982 0.699198424
C 87.3265733 118.087556 0.683394113
C 88.5273257 118.81002 0.569171436
C 88.5002354 120.238151 0.491404754
C 89.785841 116.634527 0.380720546
C 89.7808235 118.095429 0.408767418
C 91.0499082 118.814238 0.20695582
C 91.03276 120.242601 0.159608858
C 92.3223997 116.65868 0.229673781
C 92.2980573 118.089516 0.15807219
C 93.5761267 118.775273 0.172027136
C 93.5312408 120.234352 0.19224603
C 94.7907984 116.614428 0.313374571
C 94.8111509 118.067144 0.329887941
C 96.0597829 118.824608 0.339829838
C 96.0534635 120.249285 0.356543897
C 97.2661115 116.62663 0.375481926
C 97.2815088 118.090921 0.41307492
C 98.5265493 118.797112 0.516413304
C 98.5563918 120.261161 0.495221688
C 99.7708391 116.650766 0.303853208
C 99.7657186 118.06123 0.488082885
C 100.972843 118.770859 0.601572106
C 101.001764 120.200114 0.574737659
C 102.24787 116.581209 0.517331675
C 102.208489 118.044914 0.623010832
C 103.488837 118.760751 0.687466374
C 103.49596 120.200226 0.654834998
C 104.745405 116.627809 0.630409121
C 104.761723 118.079068 0.717117155
C 106.039622 118.805482 0.752706404
C 106.048179 120.181687 0.730522729
C 107.27418 116.631495 0.661464558
C 107.277213 118.107023 0.652705856
C 108.524387 118.7775 0.597999554
C 108.522717 120.203873 0.653873326
C 109.753657 116.55664 0.529614668
C 109.790491 118.024575 0.491154676
C 111.05092 118.722725 0.551348393
C 111.070739 120.180956 0.617081847
C 112.295006 116.573908 0.521650843
C 112.297403 118.005343 0.608150391
C 113.543676 118.745512 0.667234642
C 113.540419 120.177317 0.625925355
C 114.766303 116.578678 0.379241337
C 114.784317 118.032206 0.607904687
C 116.039907 118.775571 0.644280504
C 116.050555 120.197598 0.780504936
C 117.260972 116.609207 0.516365927
C 117.294893 118.051848 0.67341651
C 118.563125 118.772147 0.720147734
C 118.539973 120.225703 0.76323171
C 119.776677 116.66272 0.541440667
C 119.82152 118.097014 0.683971392
C 121.047559 118.793216 0.735120979
C 121.028328 120.209689 0.772730304
C 122.280406 116.617191 0.647547545
C 122.275294 118.059519 0.736643567
C 123.510712 118.778049 0.681786138
C 123.520223 120.239675 0.650064214
C 124.759327 116.571441 0.644769327
C 124.749045 118.03478 0.579807622
C 126.000915 118.82517 0.670501013
C 126.018831 120.264768 0.766174019
C 127.243068 116.650991 0.565237777
C 127.263759 118.097429 0.62667693
C 128.532824 118.784524 0.689303997
C 128.527871 120.247571 0.67351406
C 129.746466 116.636953 0.582193661
C 129.753151 118.044914 0.662970356
C 130.98948 118.742788 0.636288827
C 130.972181 120.235745 0.692790209
C 132.275294 116.619619 0.453405929
C 132.257267 118.050955 0.623787799
C 133.51903 118.805637 0.589728931
C 133.482791 120.21629 0.695457576
C 134.741035 116.64789 0.439613076
C 134.765656 118.072071 0.512116194
C 136.024762 118.747431 0.683396818
C 136.03659 120.174683 0.945833936
C 137.283009 116.595551 0.439756294
C 137.245664 118.02159 0.69496276
C 138.52678 118.762435 0.659336951
C 138.50933 120.176883 0.838868139
C 139.738592 116.549842 0.499324583
C 139.730998 118.026992 0.515398559
C 140.965898 118.786354 0.481553113
C 141.002525 120.236636 0.789797767
C 142.240761 116.592065 0.380614303
C 142.280587 118.079751 0.462914414
C 143.53943 118.851136 0.359031583
C 143.532038 120.224902 0.670645078
C 144.681083 116.625191 0.144086161
C 144.782861 118.072955 0.28037842
C 145.999707 118.776779 0.42186754
C 145.986773 120.20569 0.541218996
C 147.160402 116.577783 0.0210760767
C 147.218308 118.003161 0.260538906
C 148.428165 118.782866 0.369771557
C 148.400382 120.211824 0.571769247
C 149.616041 116.620622 0.143531013
C 149.688064 118.049629 0.319403201
C 150.945237 118.757566 0.289650124
C 150.967559 120.228314 0.483911508
C 152.156841 116.620983 0.0528066618
C 152.174076 118.048424 0.248360239
C 153.446808 118.783889 0.315522776
C 153.483752 120.234181 0.514918013
C 154.678612 116.622218 0.174730193
C 154.700412 118.068537 0.195418047
C 155.959164 118.800087 0.23073113
C 156.024093 120.241648 0.351507169
C 157.222605 116.606962 0.177958566
C 157.213051 118.063339 0.229061009
C 158.448183 118.792393 0.280261291
C 158.457815 120.235655 0.238615305
C 159.754067 116.662001 0.166174102
C 159.774289 118.07946 0.155925606
C 160.976066 118.780666 0.0624703115
C 160.939426 120.217609 0.105071283
C 162.223423 116.621237 -0.0866772077
C 162.224374 118.079576 0.00483945938
C 163.455445 118.793406 0.0331647481
C 163.427128 120.2451 0.154908573
C 164.717537 116.607681 -0.02819218
C 164.721384 118.04553 0.0362265168
C 165.938465 118.759322 0.103009552
C 165.902673 120.2003 0.172982927
C 167.181957 116.577794 0.144077757
C 167.229971 118.003373 0.120659897
C 168.448312 118.721743 0.145044587
C 168.399547 120.147962 0.149577781
C 169.670485 116.603188 0.239385319
C 169.665379 118.042569 0.245261152
C 170.925758 118.780169 0.11530685
C 170.893711 120.20914 0.094569529
C 172.150956 116.576866 0.120395207
C 172.153198 118.026922 0.111260293
C 173.397202 118.788638 -0.00926114334
C 173.364185 120.200849 -0.0981354042
C 174.615744 116.622741 -0.114854902
C 174.592413 118.050404 -0.0473961984
C 175.900705 118.731659 -0.180980843
C 175.874521 120.187471 -0.182519467
C 177.11677 116.609428 -0.458246654
C 177.134154 118.055641 -0.367677517
C 178.342893 118.828506 -0.304553795
C 178.365139 120.25055 -0.214370238
C 179.640103 116.617194 -0.445771167
C 179.62359 118.050068 -0.272024332
C 180.897461 118.782286 -0.131386678
C 180.83571 120.255839 -0.043584392
C 182.094569 116.687603 -0.197528719
C 182.127284 118.087851 -0.06042966
C 183.365052 118.776857 0.0774868845
C 183.344274 120.247728 0.102669073
C 184.606626 116.594838 -0.0913006766
C 184.604572 118.032556 -0.034927328
C 185.837634 118.787492 -0.0089105689
C 185.883986 120.250181 0.0437385047
C 187.072308 116.567604 -0.2064503
C 187.03691 118.062743 -0.10022184
C 188.301405 118.79843 -0.112528483
C 188.296167 120.218059 0.0634686812
C 189.54104 116.605489 -0.221768964
C 189.533718 118.040358 -0.108331951
C 190.756465 118.805 -0.0630374858
C 190.782673 120.217876 0.0678501018
C 192.091886 116.619162 -0.261378792
C 192.030479 118.057052 -0.0936941181
C 193.223062 118.800821 -0.0915007389
C 193.294563 120.261269 0.00394794617
C 194.519715 116.654215 -0.344537836
C 194.496577 118.094335 -0.172364136
C 195.778065 118.794763 -0.203080666
C 195.77276 120.270473 -0.207020091
C 197.000563 116.638626 -0.512569433
C 197.014731 118.074702 -0.329653802
C 198.264232 118.81503 -0.246416245
C 198.249954 120.258391 -0.350285299
C 199.465956 116.658034 -0.677663109
C 199.532859 118.052401 -0.400355899
C 200.781273 118.787441 -0.581450951
C 200.76025 120.248573 -0.594165865
C 202.0122 116.543117 -0.72061535
C 201.984506 118.006982 -0.649315421
C 203.249467 118.756782 -0.775101986
C 203.223206 120.178579 -0.739559171
C 204.484763 116.559724 -0.900225905
C 204.500211 118.001957 -0.741926785
C 205.775306 118.79351 -0.767451969
C 205.758141 120.189761 -0.830200153
C 207.008407 116.615673 -0.935971708
C 207.016806 118.046731 -0.876320134
C 208.291095 118.768416 -0.914890283
C 208.249325 120.15584 -0.828607557
C 209.503493 116.588594 -1.04493351
C 209.513172 118.052792 -0.983964795
C 210.740514 118.712283 -0.999094632
C 210.757341 120.146749 -0.891325375
C 211.991399 116.556097 -1.04468481
C 211.981229 117.981974 -1.08077607
C 213.256634 118.74372 -1.00141634
C 213.240652 120.17628 -0.915167337
C 214.460684 116.561355 -1.16045564
C 214.499694 118.017584 -1.07832619
C 215.742021 118.755764 -1.23391969
C 215.750131 120.210216 -1.19177531
C 216.948456 116.578761 -1.37121003
C 216.969838 118.027462 -1.38557535
C 218.251896 118.727787 -1.42441913
C 218.238431 120.18474 -1.31329802
C 219.449157 116.576092 -1.48566899
C 219.486113 118.00391 -1.47742736
C 220.687781 118.777903 -1.48707467
C 220.753336 120.203488 -1.47538451
C 221.962115 116.510216 -1.47802891
C 221.93273 118.007536 -1.48459796
C 223.200638 118.766364 -1.39468252
C 223.245566 120.18096 -1.2880818
C 224.467302 116.567951 -1.4889953
C 224.496881 117.993271 -1.39246305
C 225.757532 118.739808 -1.31157602
C 225.753063 120.156725 -1.07279072
C 226.995411 116.602382 -1.56452513
C 227.020075 118.03641 -1.42041391
C 228.225416 118.796543 -1.36550528
C 228.233777 120.215766 -1.15757512
C 229.491151 116.630969 -1.60269121
C 229.486109 118.075466 -1.47980567
C 230.728775 118.782359 -1.37393803
C 230.772365 120.208413 -1.29990374
C 231.973247 116.588583 -1.38042194
C 231.985447 118.022468 -1.32336899
C 233.268183 118.743823 -1.27340669
C 233.261384 120.194316 -1.22445961
C 234.495603 116.593379 -1.33481879
C 234.542999 118.027476 -1.30644988
C 235.789199 118.760579 -1.2751209
C 235.776942 120.247497 -1.1892024
C 236.978682 116.584751 -1.18354796
C 237.006517 118.019544 -1.17569416
C 238.192419 118.765312 -0.960820435
C 238.165682 120.195363 -0.935761339
C 239.448572 116.613651 -0.807330921
C 239.412052 118.071625 -0.741719419
C 240.717066 118.77573 -0.618587911
C 240.69605 120.229489 -0.601080828
C 242.005141 116.634029 -0.616552484
C 241.947228 118.079711 -0.535019205
C 243.22814 118.794154 -0.419234595
C 243.20748 120.251046 -0.415648242
C 244.468456 116.614539 -0.424909242
C 244.45549 118.033137 -0.362931237
C 245.708979 118.707869 -0.452911554
C 245.721686 120.137328 -0.425231442
C 246.960351 116.58451 -0.457669662
C 247.00447 118.002197 -0.460090586
C 248.179943 118.742017 -0.417399334
C 248.182544 120.1731 -0.343729727
C 0.00305541686 120.876663 -0.380512526
C 0.0548973553 122.307216 -0.3308508
C 1.26190757 123.020964 -0.399491892
C 1.24719969 124.482997 -0.383585989
C 2.50735291 120.937932 -0.448439466
C 2.5156128 122.373629 -0.435796731
C 3.73828046 123.093616 -0.51358408
C 3.78524734 124.593011 -0.432196211
C 4.98326286 120.922417 -0.699675851
C 4.98162889 122.415805 -0.741597358
C 6.20865377 123.138319 -0.837343065
C 6.23609751 124.566705 -0.788910729
C 7.42883847 120.957507 -0.976894118
C 7.41990745 122.418901 -0.934660603
C 8.66567992 123.155556 -1.04582164
C 8.68360934 124.550048 -0.98576249
C 9.93415954 120.975642 -1.14737427
C 9.88484252 122.396773 -1.13467722
C 11.114483 123.119358 -1.17008905
C 11.1524513 124.568121 -1.1166201
C 12.3876106 120.953545 -1.28358224
C 12.3828702 122.388279 -1.24432468
C 13.6173648 123.122803 -1.28129514
C 13.6485583 124.567982 -1.18528465
C 14.8783796 120.998082 -1.26313769
C 14.9071858 122.427868 -1.29992768
C 16.1593891 123.138763 -1.23227196
C 16.1821468 124.595546 -1.18802556
C 17.3517579 120.977295 -1.26279242
C 17.3905217 122.390778 -1.28291753
C 18.7031391 123.103374 -1.29320809
C 18.6488235 124.536021 -1.26159021
C 19.8865491 120.918549 -1.2779999
C 19.887954 122.358655 -1.24611326
C 21.1112635 123.093827 -1.26082991
C 21.0901597 124.555273 -1.26283615
C 22.4064726 120.921696 -1.31168335
C 22.3887897 122.405487 -1.28707372
C 23.6503766 123.092791 -1.26799484
C 23.6286603 124.522691 -1.22515046
C 24.8733763 120.892515 -1.25166536
C 24.8838338 122.3641 -1.25758487
C 26.170606 123.079895 -1.25932236
C 26.1219363 124.488594 -1.2311863
C 27.3607202 120.915756 -1.39698019
C 27.4059912 122.349315 -1.35210314
C 28.642241 123.09633 -1.36740078
C 28.6060574 124.519643 -1.19554793
C 29.8424951 120.910168 -1.34721523
C 29.9120702 122.372875 -1.30724299
C 31.1610377 123.072451 -1.27445926
C 31.1330008 124.541338 -1.14800012
C 32.3990844 120.921056 -1.19365907
C 32.3789664 122.367594 -1.23725039
C 33.650896 123.103972 -1.24705877
C 33.6463378 124.511946 -1.32300015
C 34.8712147 120.963499 -1.17649249
C 34.926882 122.387141 -1.18265034
C 36.1511056 123.095633 -1.23532184
C 36.1254745 124.513781 -1.27464819
C 37.3659711 120.90342 -1.1510457
C 37.3440198 122.341294 -1.10893992
C 38.5965833 123.05897 -1.01978439
C 38.6037406 124.488278 -1.046151
C 39.8334615 120.885105 -1.05334804
C 39.8591206 122.350234 -1.05557656
C 41.119174 123.033337 -1.01871624
C 41.1417581 124.492075 -1.10705572
C 42.4085956 120.894821 -0.944570737
C 42.3801405 122.362212 -0.98686323
C 43.6382005 123.076715 -0.916372867
C 43.6609844 124.502156 -1.06542165
C 44.8373262 120.904052 -0.700404692
C 44.889201 122.332731 -0.699475567
C 46.155953 123.093854 -0.706538709
C 46.1133712 124.513257 -0.837641311
C 47.3619591 120.9194 -0.754720151
C 47.3632228 122.358942 -0.781513146
C 48.6440669 123.107782 -0.753378553
C 48.5796913 124.565101 -0.876494367
C 49.8854504 120.909895 -0.659286939
C 49.890507 122.37869 -0.646849083
C 51.0949163 123.109892 -0.65429804
C 51.1103009 124.517021 -0.747589622
C 52.3266931 120.915284 -0.550755103
C 52.3211398 122.371178 -0.579188839
C 53.5575794 123.074862 -0.469693327
C 53.5585371 124.536519 -0.604813784
C 54.8115239 120.916827 -0.437254839
C 54.8000011 122.404132 -0.43245184
C 56.0459466 123.083521 -0.436497335
C 56.0977624 124.538113 -0.548021171
C 57.2947569 120.92082 -0.300014928
C 57.323899 122.357788 -0.369331094
C 58.551651 123.06614 -0.408582558
C 58.5578162 124.524672 -0.446727819
C 59.778754 120.932064 -0.157053244
C 59.7906854 122.381923 -0.281405102
C 61.048732 123.083996 -0.207634281
C 61.0516868 124.57305 -0.332125519
C 62.2955491 120.957756 -0.185475674
C 62.2885051 122.394533 -0.185214956
C 63.5525362 123.135261 -0.25409727
C 63.5815992 124.559977 -0.421020407
C 64.8170502 121.012529 -0.253464536
C 64.8202916 122.411385 -0.259791269
C 66.0131543 123.154195 -0.263085178
C 66.0618525 124.563112 -0.329353046
C 67.3020864 120.99036 -0.180615276
C 67.3214839 122.401338 -0.234199054
C 68.5645051 123.116914 -0.199864458
C 68.5633968 124.562927 -0.297813706
C 69.8479721 120.986398 -0.212049094
C 69.8294937 122.410473 -0.227230229
C 71.0778851 123.090395 -0.174540529
C 71.0612614 124.55032 -0.285481397
C 72.3137063 120.94155 -0.0581732161
C 72.3465853 122.4067 -0.216916082
C 73.5844755 123.096804 -0.278322126
C 73.5890845 124.542038 -0.426920413
C 74.819697 120.935688 0.0365051422
C 74.8213655 122.402107 -0.084690871
C 76.0888741 123.082349 -0.0659734791
C 76.0605503 124.542106 -0.224981529
C 77.3050743 120.900599 0.252568643
C 77.3286428 122.337648 0.139588258
C 78.5838221 123.146551 0.166301088
C 78.5283921 124.605551 0.0987033997
C 79.7760821 120.992217 0.400728738
C 79.785772 122.429028 0.295724666
C 81.006148 123.108193 0.405287763
C 81.0276247 124.584762 0.364830123
C 82.322402 120.963056 0.601292306
C 82.2783113 122.394247 0.510231205
C 83.5419228 123.139305 0.502984343
C 83.5270832 124.592987 0.457157372
C 84.8050163 120.952174 0.496100147
C 84.8096181 122.384651 0.505134951
C 86.0568343 123.079268 0.478018771
C 85.9681174 124.530514 0.416380159
C 87.261273 120.923764 0.512426724
C 87.31304 122.391755 0.458920497
C 88.4787955 123.095669 0.432946406
C 88.491265 124.558419 0.345270625
C 89.7451704 120.903963 0.325636519
C 89.7907888 122.343474 0.366642475
C 91.0344486 123.091474 0.25814386
C 91.0090796 124.557479 0.305680765
C 92.2809071 120.994175 0.190882272
C 92.3177474 122.443308 0.223699152
C 93.5153819 123.126967 0.347900474
C 93.5036923 124.552586 0.40665637
C 94.7721991 120.981638 0.249803854
C 94.7455008 122.424429 0.316571992
C 95.9854413 123.114481 0.423262789
C 96.0007703 124.548995 0.527325954
C 97.285608 120.959644 0.450314191
C 97.2608412 122.409869 0.474881871
C 98.4899153 123.09035 0.528710127
C 98.5050623 124.558533 0.604206719
C 99.7710736 120.924434 0.515555326
C 99.7450553 122.354393 0.510336672
C 101.012501 123.044767 0.592845614
C 101.033619 124.554282 0.759939623
C 102.258016 120.900691 0.572745982
C 102.288634 122.381776 0.568865137
C 103.527032 123.094402 0.778143661
C 103.515406 124.469693 0.847565891
C 104.762176 120.918422 0.65289165
C 104.817273 122.372948 0.755703507
C 106.040231 123.086552 0.781294428
C 106.004382 124.540226 0.874640263
C 107.281563 120.926302 0.778149679
C 107.305571 122.367608 0.693995616
C 108.520793 123.093908 0.617255468
C 108.510413 124.51855 0.651690729
C 109.79648 120.910519 0.610227299
C 109.781664 122.383565 0.612016365
C 111.059357 123.097823 0.568989462
C 111.03782 124.540937 0.554173085
C 112.326581 120.929444 0.59127179
C 112.302035 122.358876 0.523451211
C 113.528874 123.09032 0.591598857
C 113.530599 124.481101 0.576641061
C 114.785305 120.919481 0.732319601
C 114.762445 122.353961 0.726506182
C 116.078499 123.11717 0.757924773
C 116.043609 124.565111 0.666554815
C 117.300509 120.950245 0.7811442
C 117.316353 122.335642 0.756007959
C 118.542152 123.043909 0.692640643
C 118.54646 124.548739 0.632364398
C 119.815414 120.890698 0.75020234
C 119.766746 122.36009 0.768732769
C 120.974544 123.123483 0.812982655
C 121.048804 124.58319 0.725571082
C 122.260685 120.955442 0.715279771
C 122.284092 122.405375 0.836579138
C 123.524918 123.102302 0.850006815
C 123.525018 124.611277 0.794236988
C 124.800997 120.951144 0.694492545
C 124.75593 122.365675 0.767888027
C 126.011433 123.117118 0.758340609
C 125.997001 124.555339 0.813426433
C 127.282456 121.006746 0.768509352
C 127.259468 122.407728 0.820726742
C 128.527245 123.13743 0.816377072
C 128.458387 124.538173 0.818245954
C 129.765585 120.987693 0.694338633
C 129.735534 122.409233 0.744029054
C 130.985404 123.111342 0.8073575
C 130.973591 124.534073 0.801077457
C 132.241741 120.923111 0.736249095
C 132.236007 122.342746 0.792177503
C 133.464244 123.07076 0.874088913
C 133.496748 124.480003 0.699585787
C 134.725175 120.905692 0.895043053
C 134.713823 122.335301 0.8971999
C 135.995053 123.045886 0.902128974
C 135.940863 124.49288 0.78529392
C 137.274653 120.938055 0.974064908
C 137.249499 122.393164 0.976550292
C 138.485075 123.108474 0.98386216
C 138.470167 124.569568 0.874443145
C 139.739254 120.928314 0.930762053
C 139.759832 122.423806 1.01385238
C 141.03082 123.138686 0.972964831
C 141.009468 124.58695 0.931851378
C 142.281597 120.936163 0.804185506
C 142.269143 122.402698 0.920700784
C 143.559017 123.10833 0.821240363
C 143.517881 124.525982 0.736298675
C 144.766302 120.981635 0.683240521
C 144.776019 122.395169 0.767479626
C 145.999519 123.13987 0.723097013
C 145.977456 124.551896 0.671144024
C 147.186087 120.927803 0.678437153
C 147.223402 122.379864 0.679337088
C 148.483648 123.094901 0.70003259
C 148.489365 124.544854 0.703398595
C 149.710723 120.920607 0.582661107
C 149.721763 122.359619 0.714286846
C 151.032032 123.04741 0.737307951
C 150.964041 124.479617 0.702330795
C 152.220407 120.929026 0.581643896
C 152.197874 122.360825 0.722181592
C 153.467771 123.041636 0.661499347
C 153.502794 124.501868 0.581544413
C 154.755562 120.933503 0.54377008
C 154.755355 122.341092 0.593127483
C 155.988548 123.053226 0.487781373
C 155.983037 124.532115 0.508509259
C 157.247754 120.921025 0.271990395
C 157.230997 122.367889 0.406217973
C 158.445971 123.106867 0.39720284
C 158.442731 124.526952 0.412812312
C 159.717768 120.95745 0.197188505
C 159.713807 122.401142 0.259635283
C 160.931199 123.086285 0.27664683
C 160.968186 124.537838 0.231856583
C 162.152224 120.929303 0.169772409
C 162.187176 122.386623 0.237817273
C 163.390174 123.075497 0.26355481
C 163.400216 124.509345 0.32521424
C 164.661395 120.933129 0.217432991
C 164.639141 122.332694 0.289197571
C 165.87696 123.056956 0.328315349
C 165.900259 124.498274 0.319133646
C 167.141977 120.863069 0.222728185
C 167.143521 122.313198 0.208495486
C 168.397818 123.043166 0.149244392
C 168.38594 124.495451 0.227172398
C 169.66476 120.904318 0.0490494495
C 169.636569 122.312186 0.022696789
C 170.85636 123.044818 -0.0608522285
C 170.935919 124.476234 -0.0211338908
C 172.121297 120.913739 -0.0418994054
C 172.103437 122.367487 -0.0368168572
C 173.384272 123.052549 -0.0487937292
C 173.384961 124.490765 -0.00277015256
C 174.627097 120.898224 -0.0841766784
C 174.614324 122.313105 -0.119558081
C 175.851689 123.096177 -0.124624807
C 175.842326 124.532961 -0.00573937166
C 177.10909 120.918847 -0.15795948
C 177.124205 122.381115 -0.0422398892
C 178.351092 123.092744 -0.00321456773
C 178.378542 124.505576 0.0221221026
C 179.608736 120.941513 -0.135380907
C 179.589114 122.383025 -0.0668527096
C 180.836172 123.082313 0.0114578694
C 180.851695 124.515838 0.14368006
C 182.07842 120.966581 0.0259774639
C 182.081109 122.387115 -0.0225573568
C 183.35072 123.095152 0.144988569
C 183.364633 124.583432 0.226330029
C 184.612723 120.912324 0.0523049528
C 184.596754 122.395722 0.0982206108
C 185.823485 123.105821 0.114595269
C 185.816902 124.565648 0.258209425
C 187.096599 120.975619 0.0776058171
C 187.060806 122.403561 0.138243474
C 188.315984 123.122925 0.209415016
C 188.301965 124.58252 0.363003491
C 189.566853 120.957441 0.0843837691
C 189.576481 122.388777 0.160004469
C 190.845464 123.152606 0.163017069
C 190.800089 124.585784 0.269266869
C 192.059787 120.966081 0.106699972
C 192.096488 122.403383 0.113395604
C 193.312144 123.083765 0.049035199
C 193.315287 124.529533 0.251268614
C 194.572995 120.976157 -0.111812457
C 194.563731 122.385658 0.00153101094
C 195.79721 123.121561 -0.0677270907
C 195.802945 124.506732 0.0943789692
C 197.030461 120.986536 -0.242751395
C 197.065074 122.38311 -0.161630077
C 198.286348 123.178581 -0.170833614
C 198.300642 124.568452 -0.113859965
C 199.474164 120.988316 -0.500489463
C 199.517141 122.457618 -0.380337549
C 200.740038 123.134591 -0.488304044
C 200.726473 124.561841 -0.420251463
C 202.04481 120.943101 -0.650168449
C 202.002269 122.442714 -0.616191946
C 203.23786 123.120393 -0.717174967
C 203.243055 124.561608 -0.514558679
C 204.499772 120.917143 -0.751749111
C 204.491888 122.425739 -0.650943306
C 205.762679 123.077184 -0.604401298
C 205.735661 124.538977 -0.474714813
C 207.002408 120.928311 -0.831134318
C 207.01152 122.384297 -0.692328225
C 208.297405 123.080987 -0.63219771
C 208.257826 124.5068 -0.528240951
C 209.510908 120.928979 -0.86575729
C 209.524243 122.360121 -0.809589098
C 210.805013 123.060261 -0.775700322
C 210.778581 124.503175 -0.716018323
C 212.01234 120.907238 -0.902481979
C 212.002824 122.350674 -0.888612994
C 213.211759 123.097968 -0.880307638
C 213.237544 124.515113 -0.807075895
C 214.460403 120.911323 -0.986375399
C 214.42192 122.342048 -0.887698469
C 215.74322 123.095695 -0.918959872
C 215.715017 124.544177 -0.790293318
C 216.984909 120.961678 -1.19608772
C 216.972726 122.376034 -1.06691196
C 218.230602 123.088297 -1.04486087
C 218.261424 124.520463 -0.932586507
C 219.498114 120.902181 -1.36608173
C 219.538084 122.359863 -1.1645094
C 220.800335 123.059276 -0.961647048
C 220.77409 124.48516 -0.793632208
C 222.016239 120.906223 -1.31823414
C 222.041698 122.334538 -1.11534935
C 223.32118 123.076723 -1.06876372
C 223.267641 124.50442 -0.893494951
C 224.496051 120.876385 -1.06648914
C 224.532946 122.328222 -0.955575589
C 225.768069 123.039703 -0.802356526
C 225.77358 124.4585 -0.707282118
C 226.987912 120.89731 -1.01600842
C 227.026472 122.315238 -0.90033907
C 228.290356 123.06946 -0.934979112
C 228.271486 124.512253 -0.813323329
C 229.537881 120.89207 -1.1810813
C 229.488765 122.314044 -0.964033532
C 230.723663 123.07749 -0.82758921
C 230.72452 124.50801 -0.76499408
C 232.036694 120.916712 -1.21139251
C 232.011154 122.361223 -0.925410556
C 233.213367 123.11724 -0.900251824
C 233.192839 124.560578 -0.883985688
C 234.507107 120.954869 -1.15266014
C 234.484959 122.419223 -1.05180138
C 235.703993 123.129716 -0.974013277
C 235.713566 124.535026 -0.885123244
C 236.997672 120.955244 -1.01680365
C 236.978585 122.403028 -0.939075451
C 238.246536 123.133844 -0.813073966
C 238.225997 124.547464 -0.668026233
C 239.445978 120.891816 -0.769709125
C 239.466215 122.348512 -0.76330833
C 240.68958 123.068207 -0.593848292
C 240.691291 124.491041 -0.524339922
C 241.936296 120.912015 -0.432472692
C 241.953032 122.345767 -0.449642495
C 243.214664 123.015712 -0.392757974
C 243.20398 124.479982 -0.355083289
C 244.484568 120.908762 -0.372615635
C 244.456191 122.32146 -0.409205652
C 245.678604 123.043931 -0.421822907
C 245.673487 124.477687 -0.323495884
C 246.99269 120.875161 -0.395543611
C 246.949701 122.296065 -0.445374306
C 248.183515 123.020628 -0.395002669
C 248.160942 124.490853 -0.394874626
C 0.000370169532 125.269244 -0.383391083
C 249.405924 126.697194 -0.478694168
C 1.26832023 127.382863 -0.551336696
C 1.22168116 128.867144 -0.656343542
C 2.52486725 125.217797 -0.374499026
C 2.49605544 126.66672 -0.527689677
C 3.71576782 127.418029 -0.68440187
C 3.73375243 128.860091 -0.771103379
C 5.01693923 125.325816 -0.573052692
C 4.97352511 126.756418 -0.658051767
C 6.2335122 127.503523 -0.808484811
C 6.28936986 128.943539 -0.805965536
C 7.4338997 125.265324 -0.974040897
C 7.44933013 126.727292 -0.963452392
C 8.67069984 127.483536 -1.07588171
C 8.68993026 128.948686 -0.992833253
C 9.91145648 125.322172 -1.02251556
C 9.90118958 126.740485 -1.07608982
C 11.1475769 127.480131 -1.17454503
C 11.1903571 128.921088 -1.11462181
C 12.4435864 125.342843 -1.20808813
C 12.4017331 126.801869 -1.16989589
C 13.6713828 127.490604 -1.15012261
C 13.6810974 128.974417 -1.19486919
C 14.8994135 125.313611 -1.2222829
C 14.9082949 126.752533 -1.12965689
C 16.1618088 127.494284 -1.10001515
C 16.1962399 128.877206 -1.07870948
C 17.398779 125.278118 -1.19567063
C 17.4055209 126.751472 -1.1691287
C 18.67237 127.438589 -1.07141904
C 18.6954428 128.843765 -1.02577901
C 19.852479 125.246277 -1.25830974
C 19.9033087 126.685397 -1.08601849
C 21.1446119 127.446766 -1.1275755
C 21.1921796 128.903894 -1.1335439
C 22.3485192 125.242918 -1.23529744
C 22.3571734 126.679808 -1.22991686
C 23.6461075 127.43451 -1.17040712
C 23.6819726 128.880239 -1.21034449
C 24.884743 125.257499 -1.17265569
C 24.8447427 126.701334 -1.1939869
C 26.0891641 127.435027 -1.21823418
C 26.1318789 128.866936 -1.16007808
C 27.3679551 125.242427 -1.21042141
C 27.3640605 126.669893 -1.12808054
C 28.5790496 127.434305 -1.11942734
C 28.6590238 128.843951 -1.12128398
C 29.8523043 125.251057 -1.05378964
C 29.8643917 126.693915 -1.08231205
C 31.1351369 127.409362 -1.1058647
C 31.1727196 128.864473 -1.14863091
C 32.3744133 125.212808 -1.22586435
C 32.3745267 126.664635 -1.16802418
C 33.6469888 127.365525 -1.22153207
C 33.6555989 128.775191 -1.23869556
C 34.8752465 125.213354 -1.3189396
C 34.8896435 126.677345 -1.25519608
C 36.1341318 127.37756 -1.23665451
C 36.1413544 128.828499 -1.31136681
C 37.3753879 125.234705 -1.13721493
C 37.3787038 126.697569 -1.16028137
C 38.6274087 127.389894 -1.25636132
C 38.6552902 128.876628 -1.32797967
C 39.9019025 125.229105 -1.13008085
C 39.8734426 126.63378 -1.29241642
C 41.1006286 127.403187 -1.38423347
C 41.1080299 128.835866 -1.39535765
C 42.4058045 125.207619 -1.18820954
C 42.3578816 126.671261 -1.30686111
C 43.6460651 127.344728 -1.2551322
C 43.6140945 128.799975 -1.3575134
C 44.86324 125.208223 -0.931105962
C 44.8749359 126.649815 -1.06885455
C 46.0897334 127.376302 -1.09647145
C 46.0949493 128.829128 -1.21153078
C 47.3019511 125.252618 -0.911048286
C 47.3296134 126.677036 -1.02050255
C 48.6076621 127.399527 -1.01803963
C 48.6260857 128.87255 -1.15456084
C 49.8629504 125.253809 -0.849088806
C 49.8543738 126.691575 -0.924594576
C 51.1158351 127.473264 -0.960804723
C 51.1154862 128.854461 -0.973313501
C 52.3673841 125.241308 -0.708779843
C 52.3451378 126.69272 -0.820652639
C 53.5973266 127.419277 -0.754035823
C 53.5837556 128.890966 -0.785971471
C 54.836058 125.288712 -0.608150549
C 54.8538994 126.71008 -0.70751907
C 56.0805729 127.414349 -0.756158892
C 56.060897 128.850516 -0.792292136
C 57.3424195 125.272846 -0.548751913
C 57.2872665 126.665641 -0.670764958
C 58.5489874 127.376137 -0.770433749
C 58.5586852 128.81177 -0.855199093
C 59.807671 125.249458 -0.414005195
C 59.8352026 126.670722 -0.555684176
C 61.0825137 127.44559 -0.643847007
C 61.0640367 128.870743 -0.767647845
C 62.3008339 125.286171 -0.456207085
C 62.3519285 126.728319 -0.613957178
C 63.5760504 127.455273 -0.706881333
C 63.5626828 128.86485 -0.820135855
C 64.8079959 125.317514 -0.423410792
C 64.7951687 126.730439 -0.577819447
C 66.0410344 127.422374 -0.568294021
C 66.0747225 128.867768 -0.679350535
C 67.3357037 125.286152 -0.348817969
C 67.2765137 126.703254 -0.399036649
C 68.5426193 127.431877 -0.361541139
C 68.5859919 128.883558 -0.501242745
C 69.8583088 125.29509 -0.304135522
C 69.7916232 126.706901 -0.356862727
C 71.0547069 127.420292 -0.321936289
C 71.0400062 128.892162 -0.385776872
C 72.3495626 125.214406 -0.372963675
C 72.2898421 126.718474 -0.40263712
C 73.5263158 127.368961 -0.421140985
C 73.5840702 128.89131 -0.466414798
C 74.8167845 125.22558 -0.345074237
C 74.7692986 126.673828 -0.435578043
C 76.0270125 127.457026 -0.402379992
C 76.0261267 128.886071 -0.496114099
C 77.2516436 125.273378 -0.11100843
C 77.2486155 126.701949 -0.206895696
C 78.5421802 127.393498 -0.150545483
C 78.5675593 128.859816 -0.334747161
C 79.7401797 125.330934 0.190201033
C 79.7956603 126.737002 0.0737949134
C 81.0671268 127.425069 0.219048146
C 81.0218332 128.870155 0.0623250369
C 82.2722848 125.312129 0.438532327
C 82.2972963 126.739452 0.297860854
C 83.5753305 127.436066 0.288111747
C 83.5744601 128.84704 0.273246635
C 84.7656241 125.267178 0.395480552
C 84.7937451 126.70453 0.356303039
C 86.042908 127.411228 0.288178526
C 86.057359 128.872884 0.212866352
C 87.2583402 125.244465 0.354318033
C 87.3007984 126.681005 0.252691667
C 88.525853 127.402094 0.27581256
C 88.5332714 128.859066 0.282866011
C 89.778572 125.253417 0.341654558
C 89.7710127 126.669865 0.269724962
C 91.0157884 127.394401 0.334952729
C 91.0439088 128.845695 0.356970016
C 92.2536418 125.247484 0.361703293
C 92.2567194 126.671118 0.387977761
C 93.5763106 127.418885 0.49297194
C 93.508383 128.864427 0.513177732
C 94.7704967 125.295574 0.503401124
C 94.8295396 126.729664 0.599397727
C 96.0576204 127.458667 0.731928447
C 96.0409075 128.897043 0.755396253
C 97.2565207 125.27564 0.576619448
C 97.3170147 126.70389 0.760227164
C 98.5275806 127.435094 0.857514497
C 98.5264313 128.854202 0.985074394
C 99.7940808 125.291611 0.707833052
C 99.7749142 126.701679 0.927506324
C 101.040462 127.412826 1.00956666
C 100.984292 128.869866 1.07926357
C 102.278152 125.254566 0.843201301
C 102.28696 126.707367 1.01575919
C 103.532296 127.413377 1.09100775
C 103.53223 128.849668 1.11761396
C 104.761943 125.260475 1.00248579
C 104.765032 126.710837 1.11775808
C 106.030523 127.402171 1.07036608
C 106.071187 128.855949 1.08967471
C 107.270598 125.227855 0.758301977
C 107.246087 126.687 0.880805438
C 108.539725 127.402819 0.81375654
C 108.564466 128.908151 0.945852239
C 109.762248 125.259396 0.567256645
C 109.832348 126.691815 0.718998512
C 111.043161 127.407381 0.774691689
C 111.027212 128.878269 0.926120486
C 112.295436 125.27431 0.594473906
C 112.291359 126.661004 0.708111344
C 113.522631 127.424591 0.714570712
C 113.537121 128.872653 0.759700369
C 114.803522 125.260554 0.593476179
C 114.787741 126.703654 0.72925068
C 116.046233 127.462288 0.743308235
C 115.986198 128.908053 0.722460434
C 117.298937 125.270637 0.60919607
C 117.292383 126.700273 0.665216367
C 118.531067 127.453625 0.633361224
C 118.515333 128.906576 0.561611438
C 119.78099 125.256242 0.628323541
C 119.76025 126.7143 0.632199556
C 121.049375 127.469861 0.704407834
C 121.063928 128.945074 0.584285844
C 122.26892 125.275161 0.741750825
C 122.330037 126.763787 0.674651288
C 123.540069 127.451519 0.562052514
C 123.574196 128.875153 0.532966973
C 124.759739 125.313241 0.813792762
C 124.784674 126.737459 0.766164514
C 125.981703 127.454187 0.775195193
C 126.008617 128.893163 0.6232311
C 127.20864 125.275477 0.842956425
C 127.232555 126.703742 0.825018245
C 128.490388 127.424478 0.718691906
C 128.454284 128.851905 0.646841405
C 129.729299 125.268437 0.810351293
C 129.725194 126.666508 0.73201029
C 130.970909 127.398576 0.687806896
C 131.020489 128.862395 0.61364765
C 132.197871 125.227632 0.702106201
C 132.223836 126.687009 0.74272213
C 133.49893 127.402435 0.779761618
C 133.490515 128.834937 0.721466323
C 134.718321 125.239381 0.700220048
C 134.754141 126.653523 0.703772106
C 136.027705 127.411958 0.741662578
C 136.046262 128.861737 0.65577419
C 137.208814 125.268289 0.795770127
C 137.27454 126.695565 0.831568313
C 138.530529 127.38946 0.780108561
C 138.537987 128.778954 0.651174342
C 139.767871 125.280486 0.876967921
C 139.783181 126.680169 0.750621394
C 141.035944 127.421954 0.71090789
C 140.99035 128.852244 0.722044753
C 142.258598 125.279332 0.822573968
C 142.278457 126.710256 0.683411236
C 143.5217 127.406477 0.650749025
C 143.503425 128.851241 0.706118772
C 144.760868 125.277592 0.655152037
C 144.725624 126.702099 0.693570769
C 145.972917 127.425968 0.697211761
C 145.997895 128.840542 0.689647401
C 147.265701 125.268415 0.716083798
C 147.29568 126.712153 0.692016083
C 148.491324 127.46934 0.66890662
C 148.475415 128.851909 0.609118323
C 149.759945 125.23253 0.665344065
C 149.731854 126.693298 0.60778265
C 150.961238 127.414371 0.550603981
C 151.010958 128.822852 0.430537224
C 152.226438 125.246172 0.602522234
C 152.183885 126.647249 0.569449939
C 153.488756 127.428713 0.48268152
C 153.490639 128.8698 0.255946362
C 154.722703 125.271566 0.504448396
C 154.718036 126.682759 0.49027525
C 155.959835 127.409977 0.466705905
C 155.985819 128.82077 0.273304611
C 157.201364 125.259148 0.444782129
C 157.216789 126.698298 0.481022556
C 158.468026 127.437523 0.443698309
C 158.433412 128.850373 0.331529557
C 159.736286 125.267808 0.291639724
C 159.740145 126.696707 0.385131941
C 160.992675 127.40928 0.391253647
C 160.99574 128.848177 0.397809369
C 162.184316 125.266175 0.180974724
C 162.227024 126.682073 0.282448244
C 163.474387 127.423704 0.377558418
C 163.455566 128.825854 0.392331322
C 164.645357 125.238269 0.290358556
C 164.677145 126.691378 0.382601665
C 165.991019 127.397398 0.415500873
C 165.968229 128.839813 0.444855606
C 167.164821 125.188616 0.298642755
C 167.237439 126.633821 0.290029809
C 168.422812 127.437183 0.239122069
C 168.398611 128.857711 0.280084372
C 169.645524 125.217872 0.111076674
C 169.672383 126.660107 0.168442175
C 170.915264 127.431464 0.166455287
C 170.959775 128.835751 0.228125385
C 172.157841 125.207639 0.0840622763
C 172.145029 126.63046 0.143808648
C 173.40439 127.369432 0.151537817
C 173.344996 128.860101 0.184201687
C 174.637512 125.246317 0.0488030628
C 174.639588 126.669302 0.148113667
C 175.874455 127.411263 0.142024925
C 175.882885 128.818919 0.132880023
C 177.136039 125.249715 0.0349939614
C 177.10064 126.674023 0.019870781
C 178.329698 127.399217 0.181622559
C 178.321238 128.868425 0.117171283
C 179.643292 125.242649 0.104079377
C 179.598422 126.665477 0.170986673
C 180.835801 127.3947 0.0848618754
C 180.861201 128.833454 0.0241276229
C 182.105489 125.253757 0.258360775
C 182.111853 126.685119 0.231217534
C 183.350117 127.433004 0.213307356
C 183.353252 128.897488 0.139046331
C 184.604113 125.297623 0.217297771
C 184.624295 126.725161 0.272175233
C 185.793417 127.453138 0.332353563
C 185.859784 128.896853 0.364225519
C 187.078019 125.31326 0.413190053
C 187.030971 126.781081 0.458979339
C 188.328117 127.457396 0.493230879
C 188.354696 128.901875 0.543316823
C 189.561332 125.286927 0.431117751
C 189.573618 126.74797 0.519972503
C 190.858058 127.429365 0.503447401
C 190.924878 128.913345 0.529802297
C 192.049908 125.277119 0.26890682
C 192.119056 126.75142 0.308635902
C 193.319841 127.447922 0.218007773
C 193.368924 128.872071 0.259963756
C 194.552894 125.240106 0.120994294
C 194.543563 126.667409 0.113651666
C 195.795904 127.445944 0.118233085
C 195.821097 128.882315 0.209247452
C 197.042394 125.289315 0.111487908
C 197.006905 126.713754 0.167722212
C 198.309668 127.43623 0.169439772
C 198.32811 128.850939 0.237337817
C 199.552792 125.248761 -0.156858322
C 199.570815 126.668176 -0.0294489877
C 200.838593 127.40776 -0.204423893
C 200.825438 128.884753 -0.137999277
C 202.018077 125.254035 -0.516871557
C 202.052227 126.656949 -0.291533896
C 203.295295 127.409335 -0.277685052
C 203.300696 128.875776 -0.144015874
C 204.521854 125.236619 -0.459816898
C 204.533568 126.676547 -0.319859284
C 205.779853 127.427496 -0.245177885
C 205.77004 128.836841 -0.186556784
C 207.003571 125.258725 -0.404001551
C 207.05658 126.707318 -0.334590868
C 208.310917 127.40465 -0.358138209
C 208.294824 128.816975 -0.274656188
C 209.538208 125.263572 -0.554148668
C 209.551881 126.704 -0.477523313
C 210.810041 127.414482 -0.517634468
C 210.792919 128.870286 -0.391615825
C 212.053213 125.255897 -0.793256351
C 212.078338 126.700568 -0.682705527
C 213.273413 127.448977 -0.657660351
C 213.286569 128.865421 -0.488697852
C 214.463407 125.211535 -0.728131122
C 214.512128 126.657345 -0.71314771
C 215.796274 127.362229 -0.749130469
C 215.7639 128.797203 -0.49635747
C 216.982935 125.244039 -0.865935171
C 217.051642 126.627239 -0.778386615
C 218.268531 127.414647 -0.630588125
C 218.290313 128.854974 -0.48259202
C 219.524986 125.222505 -0.904962798
C 219.487927 126.672247 -0.721343834
C 220.771544 127.403828 -0.540352984
C 220.804126 128.827014 -0.435557656
C 221.996832 125.230296 -0.705818295
C 222.022774 126.696004 -0.492246178
C 223.312842 127.365404 -0.450951746
C 223.31717 128.836557 -0.422699471
C 224.555022 125.207266 -0.671949391
C 224.529221 126.619153 -0.545155438
C 225.783651 127.33232 -0.489441544
C 225.795905 128.820282 -0.39503008
C 227.034487 125.249284 -0.69924793
C 227.044163 126.655984 -0.595929469
C 228.258794 127.374729 -0.677391118
C 228.302939 128.823121 -0.579431993
C 229.510283 125.260342 -0.706534879
C 229.520617 126.660874 -0.69428198
C 230.715732 127.437406 -0.696250286
C 230.769907 128.845865 -0.675001822
C 231.961601 125.310855 -0.828687807
C 231.977507 126.728559 -0.748594501
C 233.232522 127.432137 -0.728746158
C 233.198249 128.847454 -0.603269654
C 234.474923 125.242459 -0.844978067
C 234.4933 126.701994 -0.779600312
C 235.729178 127.407856 -0.644929101
C 235.670202 128.864996 -0.488297129
C 237.003135 125.264085 -0.652079297
C 236.958876 126.684271 -0.522583013
C 238.204827 127.370591 -0.396899028
C 238.180919 128.833748 -0.357406649
C 239.457773 125.265239 -0.455973712
C 239.493908 126.670198 -0.376711575
C 240.688985 127.369066 -0.313818984
C 240.697424 128.789952 -0.378992918
C 241.955937 125.186092 -0.395174281
C 241.932648 126.645344 -0.232096809
C 243.136654 127.385775 -0.270972923
C 243.12688 128.782589 -0.321345665
C 244.423159 125.201855 -0.334184312
C 244.385595 126.722219 -0.331176278
C 245.662607 127.382324 -0.357128562
C 245.67168 128.840166 -0.327848372
C 246.915863 125.233694 -0.372013351
C 246.880993 126.680866 -0.382036919
C 248.137955 127.364927 -0.454238077
C 248.14818 128.80361 -0.464412646
C 249.373163 129.547244 -0.589309014
C 249.399253 131.008777 -0.691725292
C 1.16695855 131.753646 -0.871374435
C 1.20544509 133.175912 -0.965310161
C 2.48467334 129.571729 -0.831513862
C 2.4547523 131.047466 -0.832038186
C 3.65050532 131.771406 -0.860477713
C 3.72087571 133.216763 -0.87424869
C 5.01108715 129.606224 -0.789952204
C 4.90544962 131.069651 -0.849811377
C 6.19458543 131.773101 -0.843560948
C 6.158818 133.21105 -0.811081844
C 7.4942421 129.704528 -0.856767622
C 7.41981863 131.123671 -0.950334971
C 8.6843531 131.804916 -0.930968433
C 8.71974815 133.21103 -0.855960975
C 9.9271237 129.624199 -0.989054161
C 9.9149341 131.045656 -0.98466525
C 11.2093291 131.836056 -0.984256615
C 11.1882185 133.238193 -0.774775542
C 12.4431428 129.662259 -1.15340457
C 12.4181135 131.094317 -1.08901315
C 13.6635934 131.832101 -0.884812715
C 13.6495447 133.212153 -0.571536982
C 14.9340606 129.639093 -1.05628218
C 14.9066329 131.073183 -0.972251108
C 16.1943332 131.789217 -0.87773767
C 16.176949 133.171881 -0.578998117
C 17.4631525 129.573036 -1.01615922
C 17.429197 131.008874 -0.917223578
C 18.6644168 131.761762 -0.966863173
C 18.6523229 133.230801 -0.75473943
C 19.9118882 129.568818 -1.13568908
C 19.9459634 131.037497 -1.09356485
C 21.1990977 131.783758 -1.02021212
C 21.1878758 133.218009 -0.916363516
C 22.4245512 129.624026 -1.15226538
C 22.4415072 131.053016 -1.09619242
C 23.6596858 131.745538 -1.15145316
C 23.6721644 133.154555 -1.06425608
C 24.9459124 129.583823 -1.18173941
C 24.9254395 131.036812 -1.12531485
C 26.1949213 131.742979 -1.09098353
C 26.2024991 133.181101 -1.04600437
C 27.413382 129.572327 -1.12134669
C 27.419369 130.984224 -1.05031577
C 28.6467409 131.721692 -1.04887991
C 28.6917353 133.179053 -1.03821716
C 29.8885421 129.542193 -1.17206502
C 29.8817972 130.996734 -1.13893801
C 31.1387548 131.718634 -1.04908308
C 31.1461652 133.179092 -0.989721769
C 32.4198904 129.512394 -1.18786937
C 32.4320454 130.990954 -1.12162492
C 33.6935457 131.667204 -1.07021836
C 33.6506861 133.118168 -1.04632145
C 34.8825279 129.538756 -1.24199943
C 34.9472555 130.997594 -1.14281479
C 36.1869715 131.707582 -1.07879891
C 36.1946224 133.159286 -1.03107881
C 37.3702101 129.576222 -1.35621048
C 37.3896791 131.002189 -1.30925945
C 38.6356401 131.717274 -1.34022133
C 38.650488 133.22162 -1.18232732
C 39.8672578 129.568294 -1.3715041
C 39.8936176 131.015287 -1.41620711
C 41.0877398 131.736835 -1.49931434
C 41.1537742 133.177485 -1.34888187
C 42.3851922 129.587775 -1.34773137
C 42.3593611 131.035411 -1.42410429
C 43.6338213 131.739429 -1.3630792
C 43.647926 133.181503 -1.36419743
C 44.8417668 129.567822 -1.33517703
C 44.8606672 130.998012 -1.32153752
C 46.1370175 131.727312 -1.22492767
C 46.1147282 133.150518 -1.20529123
C 47.340931 129.559875 -1.24521856
C 47.3365329 130.982111 -1.15516792
C 48.6328321 131.773868 -1.11923694
C 48.6704008 133.202388 -1.06004434
C 49.8971768 129.594719 -1.06619925
C 49.8959861 131.033073 -1.01496204
C 51.1414523 131.732332 -1.04771747
C 51.1870355 133.197621 -1.04493031
C 52.3238204 129.577184 -0.961269193
C 52.3539043 130.977134 -1.05201534
C 53.637449 131.726649 -1.11230876
C 53.6423189 133.187761 -1.07437302
C 54.8185064 129.597127 -0.883560285
C 54.885248 131.002527 -1.04288182
C 56.1301317 131.71209 -1.12363876
C 56.1308933 133.174174 -1.11429302
C 57.3042979 129.521555 -0.969505436
C 57.3633284 130.962261 -1.10966667
C 58.6102568 131.698674 -1.19212214
C 58.6608517 133.15924 -1.11461402
C 59.7779565 129.546773 -0.898385329
C 59.8593469 131.005985 -1.03134439
C 61.0827368 131.76185 -1.1266102
C 61.131702 133.217428 -1.19418842
C 62.2910981 129.574584 -0.827662941
C 62.3018644 131.007832 -0.949779702
C 63.5580217 131.761532 -0.942555594
C 63.5907474 133.212089 -1.1140778
C 64.843449 129.574669 -0.738964512
C 64.8048942 131.053031 -0.843663499
C 66.0462133 131.769239 -0.749663228
C 66.080631 133.2318 -0.795812033
C 67.3556211 129.576296 -0.655548979
C 67.3141182 131.060523 -0.703733092
C 68.5620405 131.756451 -0.655711565
C 68.5691801 133.227771 -0.649698494
C 69.8017712 129.595822 -0.478974485
C 69.7884538 131.054353 -0.508311489
C 71.0548228 131.754321 -0.546592797
C 71.0822902 133.203868 -0.633838543
C 72.2979184 129.600327 -0.485303275
C 72.3265118 131.017526 -0.492790622
C 73.5734073 131.750573 -0.569194929
C 73.5784849 133.218382 -0.666874814
C 74.8088296 129.638945 -0.510763147
C 74.8465484 131.070141 -0.568893165
C 76.0858844 131.769625 -0.583835319
C 76.0729106 133.238385 -0.673829954
C 77.3208436 129.609573 -0.486392057
C 77.3229419 131.04401 -0.500502652
C 78.5479578 131.777982 -0.337272942
C 78.5191242 133.251069 -0.378847013
C 79.8171119 129.568798 -0.156638872
C 79.7757804 131.072848 -0.250501996
C 81.0682622 131.776024 -0.136374337
C 81.0374491 133.221432 -0.1084774
C 82.2480723 129.541235 0.139823942
C 82.2689263 131.021565 0.0376737195
C 83.592464 131.694554 0.0753441613
C 83.5749884 133.163751 0.105229737
C 84.8243679 129.569026 0.295712317
C 84.8471884 131.040386 0.234130222
C 86.0773837 131.750954 0.191259039
C 86.0643137 133.187904 0.178849623
C 87.3146722 129.62785 0.228299759
C 87.3612563 131.067302 0.213551983
C 88.5940884 131.73148 0.155092553
C 88.5597663 133.186437 0.215397044
C 89.7795761 129.558878 0.322996765
C 89.8166843 131.004534 0.257388685
C 91.0402647 131.759997 0.334594621
C 91.0601598 133.214176 0.355540397
C 92.2664413 129.570278 0.417155842
C 92.2659618 131.031828 0.421834951
C 93.5430763 131.781838 0.566720814
C 93.5161625 133.22145 0.666892847
C 94.741418 129.615586 0.615923206
C 94.7805281 131.070621 0.607794086
C 96.0301644 131.775747 0.769875403
C 96.051053 133.185402 0.725063603
C 97.2763652 129.582774 0.88182506
C 97.3046543 131.030689 0.816671785
C 98.5488325 131.725056 0.970783415
C 98.5747383 133.180634 0.968145815
C 99.7530704 129.582341 1.03923039
C 99.7647426 131.026276 1.07298658
C 101.020195 131.715107 1.2011137
C 101.039489 133.152266 1.11045073
C 102.27074 129.559404 1.16784013
C 102.262017 131.011212 1.16642355
C 103.586106 131.733171 1.1676213
C 103.59305 133.14452 1.12253629
C 104.799673 129.549871 1.12136107
C 104.815327 130.986193 1.12918825
C 106.064455 131.711262 1.09997268
C 106.031492 133.181613 1.10655056
C 107.268333 129.561289 1.03905346
C 107.309751 131.032099 1.07178515
C 108.538044 131.78402 1.12344576
C 108.580579 133.19595 1.17404131
C 109.781568 129.634042 1.00733641
C 109.748604 131.070614 1.09784924
C 111.028596 131.796548 1.1112427
C 111.040026 133.233343 1.06659883
C 112.256059 129.586048 0.890155975
C 112.25886 131.10633 0.955802031
C 113.510767 131.813141 0.817731883
C 113.513722 133.247935 0.774395041
C 114.76641 129.631236 0.74447355
C 114.753479 131.087275 0.688804874
C 115.969061 131.787593 0.537127759
C 115.958201 133.280679 0.630688592
C 117.212813 129.582856 0.558007126
C 117.235023 131.050675 0.485625194
C 118.486069 131.769254 0.415028261
C 118.475883 133.226051 0.328446323
C 119.771792 129.617629 0.570037312
C 119.726955 131.07602 0.427709586
C 121.004973 131.809314 0.356147816
C 121.044222 133.25243 0.357259199
C 122.308337 129.630759 0.479834384
C 122.278468 131.071223 0.400049045
C 123.533581 131.793163 0.435837907
C 123.493219 133.211338 0.295350105
C 124.788386 129.618924 0.60107421
C 124.774488 131.05979 0.504886794
C 126.052233 131.778759 0.500516236
C 126.066756 133.221149 0.344666872
C 127.234194 129.590656 0.615804074
C 127.231435 131.042182 0.469896608
C 128.508418 131.72342 0.356289709
C 128.555121 133.144257 0.352739029
C 129.747486 129.569522 0.481594168
C 129.75801 131.030974 0.41150994
C 131.021154 131.703634 0.387174512
C 131.082128 133.196558 0.289147654
C 132.263034 129.545988 0.619950229
C 132.261564 130.980931 0.589214157
C 133.526369 131.750956 0.472903646
C 133.523385 133.157292 0.353964791
C 134.757602 129.602861 0.726513708
C 134.74685 130.993487 0.571231916
C 135.981841 131.768944 0.524124372
C 136.016042 133.178864 0.488270785
C 137.288554 129.555816 0.620842063
C 137.21544 131.012482 0.646254477
C 138.449718 131.763515 0.793420434
C 138.472816 133.180651 0.720888039
C 139.721681 129.603802 0.738971694
C 139.690247 131.040711 0.816247896
C 140.94795 131.768566 0.725894461
C 140.923963 133.184078 0.763257483
C 142.255235 129.565864 0.716546505
C 142.222668 130.989378 0.72482019
C 143.488843 131.701541 0.830760221
C 143.440869 133.186137 0.888032659
C 144.736538 129.5664 0.73921204
C 144.739696 131.030896 0.790812276
C 145.999947 131.79872 0.724388616
C 146.031584 133.242914 0.72372917
C 147.217105 129.600924 0.609890449
C 147.209679 131.031806 0.607500179
C 148.440529 131.765226 0.487633801
C 148.467728 133.216362 0.600768351
C 149.748781 129.581072 0.506087362
C 149.717041 131.02562 0.42637068
C 150.966684 131.782119 0.292731261
C 150.95315 133.223954 0.320529763
C 152.248084 129.55994 0.229864247
C 152.189697 131.030166 0.239487961
C 153.447897 131.743098 0.126396683
C 153.433314 133.198489 0.292215863
C 154.680498 129.543654 0.147310798
C 154.664478 130.958535 -0.0189666658
C 155.944947 131.715683 0.0693406891
C 155.908848 133.138666 0.200979902
C 157.209125 129.546303 0.244593278
C 157.19682 130.999314 0.159133257
C 158.474951 131.731034 0.259628193
C 158.440705 133.175864 0.248077244
C 159.690184 129.537412 0.398626741
C 159.736662 130.977119 0.366804611
C 160.968289 131.688266 0.463936257
C 160.953953 133.145186 0.369333659
C 162.243376 129.574627 0.379411779
C 162.234679 130.993035 0.389337485
C 163.46531 131.731506 0.38669768
C 163.455911 133.187501 0.260541408
C 164.731344 129.544367 0.53649903
C 164.733549 131.010646 0.486124458
C 165.920949 131.741327 0.402506517
C 165.929342 133.192373 0.30916941
C 167.185442 129.591974 0.430317767
C 167.172282 131.005271 0.447111034
C 168.410622 131.707118 0.418363027
C 168.385942 133.180078 0.250799781
C 169.637143 129.586991 0.302654946
C 169.643525 130.981808 0.398905759
C 170.873309 131.724265 0.34282337
C 170.869165 133.155862 0.290055791
C 172.150911 129.575965 0.264433665
C 172.106817 131.017039 0.296471476
C 173.321112 131.741547 0.233166307
C 173.308138 133.192324 0.201527995
C 174.628418 129.588749 0.170683563
C 174.58072 131.030231 0.171838775
C 175.813058 131.734799 0.100915831
C 175.848083 133.162165 0.0763814693
C 177.116181 129.597219 0.151133756
C 177.082867 131.032625 0.100476285
C 178.349353 131.70535 0.0380491346
C 178.356665 133.145887 -0.00383750286
C 179.623377 129.543683 -0.00352484645
C 179.596521 130.992257 0.0414038564
C 180.865362 131.732032 0.0523702583
C 180.870961 133.160218 -0.102709473
C 182.117057 129.587157 0.0741009989
C 182.146426 130.990512 0.100389099
C 183.379402 131.767434 0.115510681
C 183.350075 133.200592 0.0709677857
C 184.636804 129.603009 0.189429742
C 184.637767 131.062332 0.235608051
C 185.857616 131.774669 0.413247075
C 185.825805 133.164348 0.42015009
C 187.10466 129.572718 0.577774513
C 187.102874 131.067271 0.608076779
C 188.340255 131.785069 0.52126051
C 188.326158 133.21969 0.40618249
C 189.600028 129.620362 0.523633127
C 189.55027 131.070751 0.417368741
C 190.843593 131.778577 0.336354999
C 190.815788 133.215964 0.283118916
C 192.142296 129.661164 0.413295388
C 192.131021 131.070779 0.350923885
C 193.348299 131.807146 0.338450889
C 193.278236 133.255511 0.282267663
C 194.568045 129.652266 0.296729411
C 194.539861 131.092577 0.297433942
C 195.854431 131.787895 0.13576179
C 195.823105 133.187884 0.277058669
C 197.084551 129.605314 0.189438988
C 197.101204 131.009201 0.0754945529
C 198.346342 131.738263 0.179045994
C 198.315971 133.176125 0.296375648
C 199.579091 129.585125 0.120695715
C 199.579136 131.010956 0.187056472
C 200.822186 131.73105 0.158177798
C 200.794697 133.16578 0.150010438
C 202.089938 129.550715 0.0107592619
C 202.065149 130.996986 0.154918174
C 203.341364 131.764176 0.131996875
C 203.325345 133.2023 0.142999211
C 204.554332 129.594242 -0.085409322
C 204.591109 131.015648 0.120363324
C 205.839218 131.758136 0.139055915
C 205.811663 133.17697 0.19611881
C 207.045749 129.504699 -0.204274685
C 207.045443 130.988466 0.00602104934
C 208.287597 131.747725 0.0515730351
C 208.323394 133.198088 0.112361403
C 209.524543 129.537424 -0.267601811
C 209.515868 130.995076 -0.132030259
C 210.758637 131.737178 -0.117769664
C 210.823905 133.217307 -0.0298923716
C 212.001856 129.601469 -0.382181564
C 212.020593 131.019775 -0.269566514
C 213.301837 131.729649 -0.266055496
C 213.329716 133.12995 -0.142538417
C 214.562995 129.589482 -0.387352838
C 214.565748 131.003397 -0.247293033
C 215.801303 131.719375 -0.165113923
C 215.79978 133.171898 -0.264862933
C 217.023564 129.522721 -0.367964421
C 217.068369 130.963368 -0.203991516
C 218.308723 131.73173 -0.179254775
C 218.27022 133.180913 -0.0934973614
C 219.548344 129.57111 -0.409202951
C 219.527792 131.029869 -0.303156112
C 220.804927 131.707965 -0.166992292
C 220.762997 133.14797 -0.0384911705
C 222.050051 129.519595 -0.385662327
C 222.030515 130.96955 -0.193767329
C 223.277953 131.732436 -0.197746631
C 223.29008 133.16627 -0.12597882
C 224.570749 129.563705 -0.420241856
C 224.522871 131.022862 -0.246013325
C 225.771245 131.770649 -0.278579685
C 225.802193 133.197897 -0.179645648
C 227.027219 129.574243 -0.428568124
C 227.008542 131.035064 -0.363184459
C 228.318535 131.768357 -0.410970072
C 228.297305 133.216539 -0.238019349
C 229.512337 129.574854 -0.628082499
C 229.531492 131.005602 -0.495139731
C 230.78811 131.742669 -0.412759935
C 230.749302 133.183505 -0.358896255
C 232.001356 129.560751 -0.661326638
C 232.006201 131.021614 -0.507450091
C 233.250442 131.767781 -0.468808019
C 233.21465 133.202724 -0.482090115
C 234.412478 129.549341 -0.477252331
C 234.50002 131.002655 -0.455064139
C 235.707547 131.749064 -0.485678379
C 235.696791 133.181861 -0.495239991
C 236.95825 129.578187 -0.432170739
C 236.952202 131.012254 -0.451347883
C 238.239877 131.750706 -0.352754127
C 238.228181 133.194151 -0.353217421
C 239.450811 129.496036 -0.371499897
C 239.485841 130.970459 -0.369247814
C 240.732995 131.718239 -0.258175728
C 240.720061 133.133388 -0.219058001
C 241.923698 129.568907 -0.319960507
C 241.91669 130.963203 -0.277120701
C 243.210997 131.708738 -0.272966296
C 243.202636 133.18137 -0.363579847
C 244.401791 129.497416 -0.333560025
C 244.436204 130.927994 -0.282953917
C 245.66677 131.75834 -0.408994263
C 245.676817 133.216595 -0.477824952
C 246.9139 129.57059 -0.382116043
C 246.933396 131.044917 -0.435514474
C 248.142792 131.748482 -0.640622098
C 248.153385 133.144566 -0.7580365
C 249.375416 133.861617 -0.913571223
C 249.365732 135.346521 -0.815914878
C 1.23187577 136.048691 -0.859310194
C 1.27105756 137.48733 -0.738924495
C 2.45115535 133.914371 -0.992843016
C 2.47580382 135.339843 -0.904211712
C 3.75326861 136.024923 -0.794650456
C 3.76642923 137.440181 -0.730172116
C 4.910763 133.887378 -0.879714015
C 4.97876601 135.338647 -0.798698712
C 6.24788461 136.063754 -0.681352276
C 6.27353971 137.49729 -0.44985574
C 7.48475957 133.896083 -0.865807437
C 7.48091433 135.352324 -0.679811569
C 8.76557808 136.055157 -0.548611983
C 8.75374892 137.537281 -0.42638272
C 9.98333136 133.941083 -0.771697498
C 9.9966415 135.339977 -0.681026721
C 11.2322878 136.12717 -0.603202353
C 11.2373968 137.572534 -0.365095544
C 12.4318664 133.931374 -0.544105469
C 12.4394926 135.378514 -0.527883352
C 13.7043787 136.105874 -0.464065264
C 13.7058224 137.552281 -0.335270759
C 14.9473405 133.881316 -0.523840123
C 14.9346014 135.326294 -0.385881528
C 16.1659878 136.052587 -0.347818084
C 16.2231337 137.520272 -0.189970945
C 17.403079 133.924374 -0.636627102
C 17.4314101 135.327965 -0.455195873
C 18.6760326 136.050358 -0.43690043
C 18.7289574 137.501583 -0.275524297
C 19.9213531 133.934085 -0.735168007
C 19.8936479 135.333182 -0.570292085
C 21.2215269 136.0237 -0.551331932
C 21.2549492 137.493442 -0.411945866
C 22.4585879 133.905331 -0.904978334
C 22.4606929 135.343765 -0.763872511
C 23.7070996 136.038558 -0.850050559
C 23.6992398 137.518412 -0.739696837
C 24.9331651 133.91131 -1.01596534
C 24.9634229 135.343112 -0.926493597
C 26.2161047 136.068205 -0.879073019
C 26.2109208 137.529098 -0.837695126
C 27.4415356 133.919756 -0.990474181
C 27.4546556 135.349856 -0.927858458
C 28.738369 136.058416 -0.956469974
C 28.6768229 137.456005 -0.981800229
C 29.9128437 133.888949 -0.952989629
C 29.9590344 135.329354 -1.02532727
C 31.1889889 136.023563 -1.05995073
C 31.1918954 137.465279 -1.05402677
C 32.3961063 133.865352 -0.987509781
C 32.4532427 135.306218 -0.977410424
C 33.7069663 136.022126 -0.939272978
C 33.7428434 137.459494 -0.988784874
C 34.9430137 133.851166 -1.13488973
C 34.9394157 135.329773 -1.13629875
C 36.1657629 136.024842 -1.2192375
C 36.2214635 137.444229 -1.17509297
C 37.4261761 133.881579 -1.08309567
C 37.4137054 135.316191 -1.21814103
C 38.7056064 136.043137 -1.21586117
C 38.7103647 137.436496 -1.20612383
C 39.9213338 133.921794 -1.22416219
C 39.9417248 135.370151 -1.26034708
C 41.1813584 136.064745 -1.29402743
C 41.2233066 137.504287 -1.33366917
C 42.4223052 133.873093 -1.39892486
C 42.4422428 135.344909 -1.28529008
C 43.736143 136.06469 -1.27314331
C 43.6788806 137.514922 -1.30399511
C 44.9061191 133.885967 -1.27632685
C 44.9583579 135.319589 -1.2808139
C 46.1790955 136.068709 -1.20249575
C 46.163644 137.485992 -1.16609514
C 47.3905843 133.909261 -1.11920391
C 47.444911 135.352372 -1.15348521
C 48.7054025 136.07578 -1.09996453
C 48.6825236 137.477476 -1.25097344
C 49.9396325 133.947772 -1.07198974
C 49.9432826 135.394562 -1.09125028
C 51.2190039 136.057029 -1.19898763
C 51.1995722 137.522771 -1.29347665
C 52.3886981 133.935917 -1.03592391
C 52.4441057 135.392181 -1.10365643
C 53.7020258 136.033422 -1.10722119
C 53.651268 137.502027 -1.18852282
C 54.881585 133.906275 -1.09468709
C 54.8881811 135.343168 -1.05227061
C 56.1367983 136.019734 -1.03466484
C 56.1112751 137.477345 -1.09961585
C 57.4438745 133.903605 -1.05822984
C 57.3634848 135.361646 -1.08902861
C 58.6275214 136.068947 -1.10325201
C 58.6037915 137.528509 -1.20030355
C 59.876492 133.909831 -1.18456664
C 59.8658818 135.36121 -1.18916173
C 61.1520607 136.097864 -1.23387904
C 61.1168676 137.530256 -1.34161632
C 62.3442674 133.941702 -1.27663007
C 62.4147184 135.345743 -1.33331516
C 63.6416773 136.123417 -1.30804944
C 63.6029844 137.502832 -1.36987014
C 64.8509202 133.958487 -1.02893109
C 64.838633 135.381519 -1.15054281
C 66.1259737 136.055654 -1.09673571
C 66.1229339 137.525273 -1.08002106
C 67.3147531 133.936585 -0.755355959
C 67.3611409 135.377606 -0.948967157
C 68.5881257 136.089384 -0.953899588
C 68.6137562 137.555274 -0.942970617
C 69.8453456 133.943989 -0.716028461
C 69.8378216 135.384756 -0.86534361
C 71.0566103 136.114662 -0.767923738
C 71.0598272 137.529724 -0.77230685
C 72.3166102 133.941956 -0.721377069
C 72.2688602 135.414281 -0.786134151
C 73.5698221 136.116012 -0.766180763
C 73.5831697 137.55111 -0.674458765
C 74.8133683 133.964806 -0.710197361
C 74.8105215 135.406069 -0.712998824
C 76.0659136 136.110428 -0.629126284
C 76.076981 137.538493 -0.52088423
C 77.3380089 133.963643 -0.584748067
C 77.2993769 135.402606 -0.593774063
C 78.5419838 136.091307 -0.460989917
C 78.5656229 137.540717 -0.445443416
C 79.7773178 133.925283 -0.233745866
C 79.7775583 135.362607 -0.244011411
C 81.034989 136.061724 -0.132932443
C 81.059728 137.508881 -0.0745510454
C 82.3406833 133.949906 0.0410157948
C 82.3134387 135.380574 -0.0158178082
C 83.5455274 136.090179 0.0832175951
C 83.5924865 137.506757 0.0600152351
C 84.8120359 133.873327 0.0897372364
C 84.782988 135.347452 0.176639574
C 86.0730627 136.063551 0.189636747
C 86.0545644 137.516706 0.227035727
C 87.332335 133.885611 0.225896221
C 87.290831 135.330559 0.1911288
C 88.5478979 136.042275 0.273783551
C 88.6030807 137.492083 0.336212383
C 89.8071502 133.96133 0.319823249
C 89.7939798 135.369306 0.364949646
C 91.0090315 136.091449 0.422030953
C 91.0685356 137.49854 0.379722762
C 92.2856172 133.935371 0.501985048
C 92.266899 135.40706 0.430281562
C 93.5296712 136.099486 0.528106551
C 93.5076977 137.49983 0.469453315
C 94.7899713 133.901906 0.730684527
C 94.8184497 135.352934 0.694947481
C 96.0661575 136.064251 0.79316686
C 96.0264718 137.475019 0.707197664
C 97.3207479 133.905786 0.831658453
C 97.2994499 135.352049 0.804729729
C 98.5543379 136.051532 0.938276896
C 98.5695575 137.504879 0.889914488
C 99.8035888 133.936099 0.964975531
C 99.8277115 135.340803 0.99840072
C 101.023102 136.049267 1.0565724
C 101.00755 137.505241 0.97059739
C 102.328882 133.864453 1.06285258
C 102.285702 135.320246 1.07594994
C 103.525625 136.036771 1.02944247
C 103.503675 137.493175 0.931181636
C 104.795419 133.897158 1.10336408
C 104.787303 135.364723 0.983498619
C 106.00492 136.101637 0.864093839
C 106.072318 137.515912 0.758413014
C 107.294348 133.896176 1.13112519
C 107.285703 135.36151 0.945167505
C 108.558379 136.09009 0.901950725
C 108.548951 137.554833 0.74717145
C 109.77921 133.925341 1.22003267
C 109.773741 135.394727 0.983015047
C 111.06405 136.112763 0.834705584
C 111.011518 137.57058 0.713471851
C 112.246195 133.945711 0.894359854
C 112.280834 135.401087 0.866962545
C 113.525832 136.080763 0.809335087
C 113.530193 137.581857 0.690692485
C 114.73452 133.975358 0.664141574
C 114.778136 135.394121 0.715333218
C 116.037435 136.130624 0.583420099
C 116.01002 137.547656 0.501699277
C 117.217382 133.994462 0.46297708
C 117.283992 135.414237 0.49196866
C 118.538225 136.117693 0.440797383
C 118.494059 137.547138 0.407241838
C 119.778805 133.89903 0.362737304
C 119.756843 135.365093 0.357068558
C 121.019915 136.105604 0.316144564
C 121.026653 137.549002 0.307840175
C 122.28176 133.950765 0.319318472
C 122.260509 135.377978 0.315802933
C 123.528601 136.093022 0.336602282
C 123.500443 137.549365 0.291364342
C 124.80931 133.875079 0.207772746
C 124.767355 135.322402 0.316820109
C 126.012822 136.026507 0.445018918
C 125.999573 137.489442 0.413265373
C 127.321325 133.911145 0.343029728
C 127.333507 135.331572 0.454112127
C 128.535403 136.07208 0.381473468
C 128.492156 137.512783 0.397305079
C 129.80494 133.898516 0.34551823
C 129.786196 135.336401 0.335862259
C 131.058221 136.102529 0.283276966
C 130.986498 137.537555 0.238301998
C 132.341536 133.94164 0.292867381
C 132.256176 135.385222 0.317527198
C 133.52623 136.149113 0.255180746
C 133.47619 137.568856 0.172744539
C 134.739455 133.917449 0.273467132
C 134.722084 135.39534 0.157039033
C 136.002632 136.087424 0.360134115
C 135.938948 137.529381 0.377613899
C 137.266939 133.867126 0.530350051
C 137.240131 135.304892 0.514020684
C 138.489031 136.065696 0.7481157
C 138.42902 137.501552 0.737791458
C 139.694767 133.912544 0.785846199
C 139.694581 135.354666 0.846011934
C 140.950352 136.024006 0.854123791
C 140.924641 137.501118 0.906536124
C 142.189542 133.894421 0.853444546
C 142.188762 135.31831 0.867122921
C 143.412436 136.043504 0.903416919
C 143.492981 137.499834 0.981135725
C 144.721741 133.936944 0.83900674
C 144.681357 135.379175 0.902705811
C 145.940588 136.071472 0.75571928
C 145.997839 137.533482 0.802592004
C 147.239706 133.940903 0.711206171
C 147.233808 135.386138 0.695748422
C 148.486735 136.073785 0.796605186
C 148.483273 137.525995 0.802766983
C 149.734659 133.940489 0.513199738
C 149.728779 135.351782 0.628702376
C 150.97892 136.061079 0.44793885
C 151.051259 137.501187 0.532440879
C 152.201586 133.905109 0.352468815
C 152.229543 135.346547 0.410352561
C 153.471523 136.091083 0.450578151
C 153.489618 137.523722 0.437261563
C 154.674861 133.87885 0.315119756
C 154.69704 135.315395 0.400375772
C 155.940265 136.034413 0.398912829
C 155.974952 137.488304 0.383617886
C 157.166114 133.851892 0.229732483
C 157.198439 135.281433 0.381379091
C 158.449476 136.002945 0.403943627
C 158.43459 137.480808 0.328992231
C 159.703694 133.909546 0.294307634
C 159.723739 135.320193 0.364056741
C 160.930967 136.087259 0.299014005
C 160.948037 137.55252 0.315518154
C 162.214603 133.889097 0.20270447
C 162.182856 135.345323 0.23109627
C 163.472712 136.072652 0.28094449
C 163.457082 137.477656 0.278426104
C 164.683296 133.931149 0.347342936
C 164.730531 135.400926 0.356689205
C 165.981297 136.097756 0.380902883
C 165.950424 137.523018 0.284858906
C 167.129037 133.913924 0.261964857
C 167.138776 135.334655 0.395251418
C 168.381574 136.111383 0.41006489
C 168.429432 137.553388 0.317440115
C 169.585499 133.90551 0.271307906
C 169.608109 135.347447 0.311092819
C 170.839419 136.083324 0.181623945
C 170.872286 137.461253 0.144344218
C 172.061504 133.945241 0.241904653
C 172.077373 135.370253 0.233341052
C 173.365399 136.094737 0.15500297
C 173.384683 137.520244 0.0162460348
C 174.601615 133.882703 0.124383562
C 174.589043 135.336722 0.163576029
C 175.857657 136.033102 0.0627986369
C 175.84125 137.48567 0.0530352768
C 177.11624 133.855274 0.0222475927
C 177.094084 135.296663 0.04701748
C 178.321114 136.018608 -0.0350207842
C 178.332801 137.42275 -0.041722725
C 179.605274 133.878892 -0.113012447
C 179.6126 135.309965 -0.113162178
C 180.806185 136.034277 -0.0331458469
C 180.812539 137.456539 -0.0848564523
C 182.118663 133.897302 0.00854502067
C 182.113674 135.357355 0.00684158215
C 183.341925 136.046926 0.0565922741
C 183.357262 137.488446 -0.00299874676
C 184.606601 133.859943 0.291845866
C 184.666591 135.315838 0.162532989
C 185.857435 136.06954 0.192761038
C 185.837158 137.4701 0.0828112565
C 187.084353 133.892249 0.3615231
C 187.09052 135.326076 0.208499167
C 188.328833 136.057512 0.181698367
C 188.359772 137.483174 0.107167749
C 189.61102 133.951678 0.317501448
C 189.581445 135.430636 0.253984851
C 190.843353 136.123559 0.264163365
C 190.856131 137.52823 0.0427849468
C 192.06445 133.977815 0.292277061
C 192.07416 135.391361 0.274509803
C 193.326158 136.138288 0.29681972
C 193.307419 137.562238 0.228340887
C 194.560287 133.95064 0.333137971
C 194.534462 135.356209 0.382576955
C 195.791784 136.104355 0.333128761
C 195.819528 137.559165 0.262764241
C 197.040441 133.916415 0.316535319
C 197.068498 135.377274 0.285226065
C 198.31628 136.069767 0.256553841
C 198.326192 137.516098 0.294138634
C 199.577691 133.915379 0.177549528
C 199.610578 135.339586 0.178969131
C 200.842946 136.093291 0.295385974
C 200.852117 137.549727 0.388732486
C 202.074208 133.917697 0.191903191
C 202.083292 135.392426 0.270842046
C 203.341019 136.085552 0.257689981
C 203.361591 137.470386 0.367885349
C 204.556892 133.940707 0.187970903
C 204.547618 135.360118 0.238574822
C 205.831376 136.054576 0.342631737
C 205.780439 137.478375 0.338751169
C 207.051665 133.899355 0.12866205
C 207.071386 135.348925 0.285852483
C 208.311488 136.034841 0.210776536
C 208.296999 137.469934 0.184243712
C 209.577847 133.908626 0.0281214454
C 209.581076 135.315339 0.113510949
C 210.823544 136.015354 0.0918502739
C 210.792927 137.444608 0.0649680187
C 212.077776 133.888848 -0.0631306856
C 212.102783 135.337338 -0.00500685838
C 213.334953 136.074406 -0.0397477136
C 213.314194 137.494941 0.119113798
C 214.560642 133.869218 -0.235318924
C 214.562413 135.297374 -0.135509377
C 215.772387 136.046681 -0.062129058
C 215.744966 137.505122 -0.0293765538
C 216.994085 133.866742 -0.0676696317
C 217.044674 135.344484 -0.0620394811
C 218.360509 136.011879 -0.0200764599
C 218.268646 137.464478 -0.106023787
C 219.544445 133.871335 -0.022258822
C 219.577587 135.316551 0.082043464
C 220.778444 136.032428 0.105888281
C 220.789051 137.471785 -0.0378566667
C 222.041225 133.885768 -0.0423905946
C 222.041266 135.353807 0.0184212498
C 223.316371 136.093103 0.0931214697
C 223.307999 137.521511 0.0229691116
C 224.539279 133.90707 -0.0919645095
C 224.552092 135.327965 -0.0312604638
C 225.809997 136.051491 -0.0947737108
C 225.809204 137.483034 0.00501527791
C 227.03595 133.899002 -0.232739713
C 227.009353 135.336515 -0.209096892
C 228.280385 136.051684 -0.194088791
C 228.285993 137.492763 -0.157413893
C 229.522042 133.887791 -0.205971479
C 229.542776 135.289086 -0.144160175
C 230.785203 136.053238 -0.201767427
C 230.793022 137.533563 -0.211171241
C 232.000731 133.903614 -0.387323893
C 232.026716 135.323847 -0.378249888
C 233.26759 136.051664 -0.450384368
C 233.251902 137.515023 -0.392081679
C 234.438736 133.892628 -0.437881263
C 234.458371 135.31127 -0.477326114
C 235.713916 136.045869 -0.521064585
C 235.70058 137.526579 -0.514076171
C 237.000932 133.897387 -0.350305233
C 237.012036 135.332298 -0.364397107
C 238.264116 136.03423 -0.274507553
C 238.169391 137.468385 -0.357409537
C 239.478473 133.865586 -0.227473614
C 239.464469 135.317663 -0.202217592
C 240.693632 136.007336 -0.228043228
C 240.713442 137.426838 -0.227622256
C 241.928377 133.880855 -0.194505434
C 241.935877 135.30495 -0.173031311
C 243.199819 136.074404 -0.125013318
C 243.25073 137.531794 -0.0803592621
C 244.428318 133.921509 -0.38206002
C 244.419322 135.330515 -0.221250851
C 245.699672 136.057394 -0.328267716
C 245.704781 137.518382 -0.280734727
C 246.951629 133.910844 -0.555695572
C 246.913205 135.319162 -0.513018735
C 248.15765 136.077114 -0.623115277
C 248.139615 137.475602 -0.506329496
C 0.0425570955 138.21141 -0.579116215
C 0.0583194548 139.610376 -0.546939425
C 1.25622369 140.384063 -0.497344423
C 1.25586449 141.778127 -0.329480973
C 2.54011337 138.20048 -0.759037357
C 2.4823217 139.624935 -0.561670184
C 3.69989902 140.380515 -0.346869459
C 3.72816548 141.786255 -0.271400748
C 5.0144709 138.223848 -0.533286914
C 4.98318294 139.662635 -0.460988478
C 6.2559944 140.379402 -0.285894907
C 6.25277812 141.823094 -0.224208931
C 7.48515521 138.211088 -0.389598187
C 7.5071555 139.656559 -0.274429646
C 8.71758618 140.416307 -0.34168558
C 8.73117456 141.86114 -0.331533814
C 10.0101575 138.287906 -0.38245662
C 9.96696742 139.717556 -0.316478767
C 11.2163954 140.440444 -0.257346742
C 11.2139305 141.859942 -0.211276872
C 12.461657 138.256489 -0.269973563
C 12.4634849 139.700465 -0.190208665
C 13.7207865 140.404234 -0.0783642679
C 13.7378626 141.833881 -0.122770486
C 14.9559831 138.254251 -0.162685516
C 15.0087383 139.705593 -0.110038996
C 16.2608328 140.412558 -0.0640036804
C 16.2503507 141.833754 -0.109172572
C 17.4687323 138.246248 -0.16003395
C 17.4887643 139.686295 -0.0382354582
C 18.702701 140.425322 -0.172622346
C 18.7345839 141.850041 -0.0454720742
C 19.9893187 138.223962 -0.376284264
C 19.9060938 139.686576 -0.327320573
C 21.2329518 140.390755 -0.26379429
C 21.2293205 141.81807 -0.190300224
C 22.4904316 138.212124 -0.455186114
C 22.4766627 139.638506 -0.38577737
C 23.6893446 140.40542 -0.53738819
C 23.6591148 141.80819 -0.526570527
C 24.9314834 138.21082 -0.739374976
C 24.9198056 139.641583 -0.58833665
C 26.1745941 140.340095 -0.726929055
C 26.1410104 141.774554 -0.686042491
C 27.4839601 138.234535 -0.914791228
C 27.4656506 139.657287 -0.892900686
C 28.7322259 140.31972 -0.982121682
C 28.7013626 141.757242 -0.925787792
C 29.9508273 138.150115 -0.964542042
C 29.9742908 139.603028 -0.980268141
C 31.2105064 140.343938 -1.05762553
C 31.1461476 141.78388 -1.01665492
C 32.4587271 138.192194 -1.0930457
C 32.4624619 139.644927 -1.15731693
C 33.7224081 140.379311 -1.15570465
C 33.7013659 141.846454 -1.14752054
C 34.9784428 138.16466 -1.19160691
C 34.9821208 139.635515 -1.18934898
C 36.1981371 140.37471 -1.30594176
C 36.2094965 141.847903 -1.24262145
C 37.4810756 138.176713 -1.25001163
C 37.4598383 139.665222 -1.22067262
C 38.7595117 140.387451 -1.27441834
C 38.690937 141.808249 -1.16423638
C 39.9638521 138.249788 -1.27285227
C 39.9510204 139.687385 -1.33130193
C 41.2467271 140.429838 -1.30099684
C 41.2172221 141.86603 -1.22912453
C 42.4575571 138.241806 -1.35375249
C 42.443085 139.675839 -1.38042796
C 43.725665 140.391961 -1.32056212
C 43.7316526 141.809311 -1.26127358
C 44.9317785 138.218225 -1.22856601
C 44.9605066 139.66359 -1.24901427
C 46.2046598 140.429911 -1.33122373
C 46.2252359 141.84127 -1.37138473
C 47.4463016 138.221381 -1.21454692
C 47.418726 139.662486 -1.31809653
C 48.6959735 140.384367 -1.38793191
C 48.6919299 141.819979 -1.43029489
C 49.932942 138.225549 -1.37753725
C 49.9552687 139.688793 -1.37927781
C 51.2166199 140.390372 -1.33367307
C 51.2244624 141.837657 -1.34406248
C 52.4277823 138.223215 -1.24953242
C 52.4308813 139.647814 -1.30467601
C 53.67076 140.386814 -1.28436519
C 53.7117795 141.780686 -1.26299007
C 54.8755219 138.201178 -1.10241945
C 54.9194307 139.645829 -1.1343998
C 56.1463294 140.354809 -1.13330312
C 56.1549557 141.820075 -1.11544835
C 57.3458218 138.185999 -1.20485121
C 57.4146975 139.663737 -1.15981351
C 58.6984942 140.353934 -1.11622284
C 58.6639427 141.827134 -1.08020075
C 59.8501766 138.24955 -1.30229852
C 59.9577644 139.696079 -1.26967521
C 61.1597789 140.429241 -1.25474666
C 61.0990805 141.819122 -1.14427637
C 62.3137655 138.207874 -1.36956229
C 62.3792036 139.665544 -1.22385093
C 63.6142577 140.361425 -1.07356738
C 63.6200631 141.850233 -0.958499888
C 64.8378204 138.227725 -1.19996477
C 64.8809678 139.674194 -0.996950824
C 66.1202242 140.428502 -0.888057101
C 66.1225543 141.857511 -0.82606649
C 67.3847741 138.293761 -0.932083863
C 67.4077033 139.70229 -0.851871043
C 68.670054 140.41671 -0.883588216
C 68.6702008 141.849457 -0.862323403
C 69.8644735 138.271157 -0.831899543
C 69.8967062 139.682016 -0.852968672
C 71.1224967 140.433977 -0.729904671
C 71.1231333 141.850851 -0.703289547
C 72.339025 138.246978 -0.69509196
C 72.3264005 139.69834 -0.642200362
C 73.6081605 140.402993 -0.463188608
C 73.5977303 141.878099 -0.405437153
C 74.8455712 138.281322 -0.543008735
C 74.8598799 139.706083 -0.401941638
C 76.116047 140.392187 -0.292991568
C 76.09655 141.805199 -0.22203497
C 77.3383493 138.270044 -0.479722774
C 77.3555934 139.687008 -0.294924696
C 78.5555337 140.386199 -0.23769119
C 78.6035491 141.786967 -0.23864081
C 79.8100482 138.195828 -0.227298286
C 79.8147577 139.626905 -0.161203508
C 81.0682353 140.356649 -0.114619494
C 81.0865331 141.836938 -0.0734552722
C 82.3543689 138.239321 0.016422378
C 82.3326564 139.648173 -0.0204137137
C 83.5844709 140.327147 0.202011228
C 83.567961 141.794068 0.0946015989
C 84.8332106 138.221185 0.146637586
C 84.8300314 139.636033 0.368176257
C 86.0825627 140.34672 0.447994289
C 86.0910968 141.783401 0.363068642
C 87.3347795 138.21434 0.362777202
C 87.3578657 139.643984 0.416446064
C 88.5915238 140.359597 0.50333835
C 88.5489387 141.792927 0.542021198
C 89.8339526 138.214518 0.395172392
C 89.7803781 139.665095 0.470177942
C 91.01937 140.397613 0.572397835
C 91.0427148 141.820927 0.677516444
C 92.2849061 138.226559 0.409372565
C 92.2535243 139.70235 0.521816378
C 93.5168946 140.356093 0.671236524
C 93.5525398 141.799401 0.773766766
C 94.7508385 138.18273 0.536383385
C 94.7170203 139.62065 0.659882248
C 95.9817256 140.345724 0.815704821
C 95.9948936 141.82594 0.911371019
C 97.2686719 138.159075 0.820223883
C 97.2582433 139.631238 0.829371475
C 98.4953242 140.371747 0.862012219
C 98.4457249 141.866523 0.842606918
C 99.7999506 138.21609 0.842331343
C 99.7447458 139.680311 0.797660041
C 100.969334 140.41782 0.883206668
C 100.985022 141.827135 0.767425233
C 102.285465 138.296957 0.937606465
C 102.249993 139.724569 0.862915471
C 103.508212 140.416128 0.864709869
C 103.522392 141.801992 0.779202145
C 104.79524 138.236639 0.839761387
C 104.773739 139.68775 0.861241748
C 106.036655 140.402259 0.739356572
C 106.03663 141.841605 0.750985938
C 107.299253 138.235062 0.745838889
C 107.302046 139.66107 0.692187274
C 108.520756 140.395401 0.657330698
C 108.517209 141.844471 0.721234376
C 109.786409 138.278089 0.651016962
C 109.776491 139.694536 0.642728526
C 110.993189 140.433774 0.723604526
C 111.033054 141.859037 0.765800255
C 112.269017 138.277667 0.689429232
C 112.300472 139.726772 0.768135256
C 113.582142 140.419633 0.671895857
C 113.520325 141.841006 0.721178554
C 114.765283 138.272438 0.579555295
C 114.802556 139.715302 0.622654021
C 116.014441 140.383342 0.484224394
C 116.023304 141.870483 0.572034533
C 117.270822 138.250084 0.429138969
C 117.292176 139.666073 0.329012551
C 118.527063 140.422178 0.395265068
C 118.507805 141.900241 0.446664932
C 119.786073 138.253435 0.40849864
C 119.756808 139.702393 0.329558937
C 121.014234 140.431451 0.314081808
C 121.00137 141.860104 0.378112621
C 122.260429 138.253955 0.302636489
C 122.293454 139.711333 0.302800963
C 123.515407 140.436756 0.229466504
C 123.498025 141.887498 0.260651345
C 124.784367 138.271511 0.325330049
C 124.751484 139.696064 0.242413312
C 126.006316 140.405282 0.301039291
C 125.992369 141.89938 0.30738188
C 127.213637 138.211167 0.404525584
C 127.237032 139.674104 0.391108186
C 128.483655 140.434974 0.38545649
C 128.431398 141.90883 0.270443875
C 129.739881 138.265548 0.40347291
C 129.742522 139.681776 0.4567608
C 130.957313 140.42209 0.422793671
C 130.918234 141.848284 0.498590193
C 132.223399 138.264456 0.188404997
C 132.209092 139.734434 0.32391024
C 133.510063 140.417859 0.416479023
C 133.437971 141.819046 0.526735755
C 134.678594 138.254016 0.307496824
C 134.742507 139.665409 0.415691502
C 136.01759 140.357707 0.409397638
C 135.984799 141.821895 0.453476676
C 137.204345 138.262329 0.502214873
C 137.257683 139.661326 0.444138556
C 138.502708 140.396419 0.475626419
C 138.429964 141.814894 0.477488441
C 139.689173 138.189093 0.760150178
C 139.713506 139.655604 0.633093992
C 140.948044 140.393307 0.712508699
C 140.90924 141.879925 0.693825791
C 142.233954 138.200108 0.915679654
C 142.243006 139.627221 0.767894492
C 143.474376 140.31873 0.751980097
C 143.421209 141.810229 0.721825771
C 144.738291 138.218536 0.885706767
C 144.744095 139.665341 0.819917985
C 145.972248 140.403804 0.898332194
C 145.988259 141.845366 0.90276414
C 147.235862 138.224288 0.84967621
C 147.205138 139.658973 0.83441387
C 148.489075 140.372522 0.779904152
C 148.511075 141.838844 0.825482207
C 149.774551 138.204456 0.692692424
C 149.773317 139.669912 0.759948212
C 151.007182 140.3858 0.646577121
C 151.002008 141.853312 0.659762594
C 152.25401 138.246317 0.439394591
C 152.242286 139.689276 0.405595003
C 153.489441 140.382177 0.415531189
C 153.445038 141.780166 0.433209756
C 154.772613 138.250406 0.426460536
C 154.72001 139.684584 0.424244845
C 155.951913 140.396021 0.311300205
C 155.915188 141.792663 0.256175673
C 157.188247 138.2049 0.374912007
C 157.204667 139.635835 0.328135681
C 158.463209 140.349292 0.36158349
C 158.465289 141.777641 0.196948505
C 159.65079 138.186162 0.290297817
C 159.690416 139.64687 0.340021361
C 160.918357 140.417793 0.27648735
C 160.928448 141.830391 0.128475394
C 162.175159 138.239718 0.290199204
C 162.187026 139.676726 0.256196327
C 163.462397 140.355936 0.193230095
C 163.459542 141.778362 0.090584555
C 164.699105 138.218251 0.230923237
C 164.719061 139.653525 0.242860494
C 165.940686 140.40848 0.166039776
C 165.910255 141.790337 0.0702661031
C 167.195573 138.261838 0.257730375
C 167.196859 139.657754 0.220535092
C 168.399774 140.387533 0.15258569
C 168.388058 141.818429 0.0653432232
C 169.685475 138.245783 0.227469195
C 169.668081 139.67406 0.137848369
C 170.90577 140.386081 0.118019867
C 170.890964 141.80531 0.136229587
C 172.126034 138.218887 0.00293519132
C 172.156492 139.712131 -0.0111732879
C 173.372845 140.435443 -0.0233392182
C 173.364831 141.861139 -0.0286566567
C 174.632312 138.25259 -0.0316653799
C 174.59066 139.675149 -0.11759777
C 175.838232 140.414115 -0.206741967
C 175.856334 141.872285 -0.1379957
C 177.081425 138.19337 0.00690970919
C 177.082891 139.642762 -0.09359943
C 178.327387 140.356748 -0.199167871
C 178.322991 141.779121 -0.223907092
C 179.586744 138.168161 -0.171064001
C 179.590355 139.619966 -0.273805044
C 180.830623 140.37566 -0.265734888
C 180.834138 141.817388 -0.279405374
C 182.074705 138.186435 -0.1149027
C 182.091228 139.627674 -0.223842926
C 183.339778 140.333038 -0.160906017
C 183.316575 141.828961 -0.10497721
C 184.584171 138.203957 0.00754714595
C 184.589654 139.612025 0.00147727027
C 185.83348 140.368723 0.0409589806
C 185.854298 141.846731 0.0544228647
C 187.086921 138.21749 0.1403148
C 187.074185 139.68882 0.0490065886
C 188.318949 140.407913 0.0291956623
C 188.337493 141.819876 0.0863791684
C 189.577498 138.205523 0.038102623
C 189.594252 139.629772 -0.0119615853
C 190.829862 140.364296 -0.0486404787
C 190.785871 141.834189 0.0350269729
C 192.078693 138.285448 0.0947249478
C 192.076049 139.717256 -0.0243662337
C 193.327683 140.448522 -0.0117886843
C 193.334827 141.874677 -0.0500917094
C 194.550754 138.250991 0.246878766
C 194.588124 139.671494 0.19674735
C 195.846902 140.385491 0.236030967
C 195.804128 141.872873 0.198440711
C 197.075376 138.247487 0.253529906
C 197.090474 139.658806 0.230546634
C 198.32094 140.394396 0.304373103
C 198.340788 141.850557 0.31744811
C 199.54322 138.236844 0.318496022
C 199.56771 139.645735 0.361526915
C 200.804999 140.369468 0.428078505
C 200.810422 141.821893 0.387685928
C 202.123871 138.235173 0.41645672
C 202.116675 139.672021 0.430996403
C 203.327629 140.360525 0.49767946
C 203.315883 141.804559 0.429974756
C 204.556681 138.241778 0.366473686
C 204.598916 139.647895 0.467487176
C 205.816935 140.39011 0.393551468
C 205.860786 141.826913 0.324586994
C 207.043629 138.184663 0.228915208
C 207.076806 139.640912 0.253298631
C 208.306311 140.385334 0.138450279
C 208.304046 141.841985 0.199166232
C 209.621009 138.175902 0.136765317
C 209.596051 139.638771 0.1555937
C 210.832154 140.372989 0.125869009
C 210.834591 141.836086 0.156752225
C 212.077607 138.181983 0.0190896452
C 212.078175 139.650235 0.0185651466
C 213.364233 140.371221 0.0701623294
C 213.345892 141.809915 0.0424604825
C 214.551021 138.217539 0.0385883948
C 214.571022 139.628687 0.101068243
C 215.846167 140.416187 -0.0202044811
C 215.879873 141.852423 0.0212268736
C 217.014551 138.219824 -0.115258445
C 217.04548 139.672837 -0.0840127179
C 218.289976 140.358932 -0.0273669771
C 218.286141 141.793727 -0.0217980383
C 219.480725 138.205841 -0.0633613273
C 219.538131 139.645462 -0.121882634
C 220.80007 140.360331 -0.121389159
C 220.847573 141.79805 -0.0879375243
C 222.046833 138.202424 -0.0023669679
C 222.016481 139.619861 -0.0602768931
C 223.295863 140.358231 -0.149156057
C 223.310413 141.81726 -0.08649717
C 224.551861 138.249372 -0.0400122792
C 224.527437 139.675214 -0.101886915
C 225.782789 140.338983 -0.120077664
C 225.809303 141.793051 -0.176123068
C 227.042043 138.177998 -0.0691449944
C 227.023727 139.630268 -0.110963074
C 228.263557 140.335898 -0.207703686
C 228.234015 141.791719 -0.206878695
C 229.493151 138.248588 -0.163052008
C 229.547569 139.651559 -0.19934323
C 230.772093 140.331394 -0.197424382
C 230.772099 141.792382 -0.19288813
C 232.006727 138.24334 -0.290976217
C 232.010957 139.691596 -0.327982823
C 233.219528 140.43853 -0.433708054
C 233.246209 141.888814 -0.292392576
C 234.499836 138.22845 -0.442538112
C 234.430007 139.668119 -0.448981061
C 235.720912 140.379165 -0.398839823
C 235.780645 141.809261 -0.280695757
C 236.954317 138.210746 -0.41396006
C 236.966346 139.624079 -0.389231784
C 238.214574 140.357565 -0.32019845
C 238.223712 141.766668 -0.117310707
C 239.478593 138.127535 -0.270782128
C 239.485134 139.634053 -0.242557079
C 240.694697 140.334308 -0.128014799
C 240.743552 141.762491 -0.0208357301
C 241.954799 138.179256 -0.167883038
C 241.982777 139.622675 -0.115726039
C 243.219015 140.363812 -0.119984613
C 243.216422 141.805069 -0.0923813545
C 244.466307 138.258426 -0.161704465
C 244.475312 139.664005 -0.177009003
C 245.743662 140.390075 -0.26055624
C 245.70716 141.828082 -0.159044247
C 246.927186 138.221344 -0.374503078
C 246.95683 139.634121 -0.397061897
C 248.171512 140.301386 -0.355574131
C 248.190988 141.747556 -0.218785151
C 0.0390693692 142.524841 -0.256649018
C 0.00620166055 143.937471 -0.17681713
C 1.24834027 144.683913 -0.0430115132
C 1.28751692 146.150242 0.0579753793
C 2.46118975 142.537915 -0.241046545
C 2.50370047 143.937607 -0.0511514686
C 3.7179169 144.682374 0.0161101755
C 3.77761322 146.098707 0.157306956
C 4.97199353 142.518179 -0.181015156
C 5.00669644 144.00727 -0.06163269
C 6.28202531 144.715462 -0.00673802155
C 6.29112468 146.102755 0.096163152
C 7.51273157 142.546363 -0.256438684
C 7.4834357 144.003943 -0.123490704
C 8.6913773 144.723428 -0.0294798984
C 8.75151303 146.127689 0.123658545
C 9.95443328 142.549463 -0.258066737
C 9.96067539 143.980079 -0.200019047
C 11.2338148 144.711143 -0.0825876373
C 11.2674501 146.141261 0.0827025902
C 12.4379463 142.547048 -0.102497784
C 12.4936361 143.971792 -0.122788702
C 13.7461137 144.679825 -0.135059081
C 13.754431 146.100342 -0.0448425735
C 14.9963257 142.558309 -0.0656191977
C 15.0096812 143.981271 -0.06489712
C 16.2005903 144.716017 -0.0812526146
C 16.2585189 146.106969 -0.0716867335
C 17.4830706 142.565289 -0.0781365691
C 17.4536441 144.003284 -0.0923906583
C 18.7461681 144.654585 -0.050654265
C 18.7309167 146.10592 -0.0395136554
C 19.998284 142.510865 -0.0992236481
C 19.9773688 143.951195 -0.103752319
C 21.1965435 144.717237 -0.257528192
C 21.2206932 146.153635 -0.266333187
C 22.4658201 142.535253 -0.368200397
C 22.4689368 143.977028 -0.4596808
C 23.6778254 144.760527 -0.649271015
C 23.6786187 146.198161 -0.588313361
C 24.9060866 142.533866 -0.686552988
C 24.9062881 143.96786 -0.733044355
C 26.1583558 144.698168 -0.83404818
C 26.1252952 146.125947 -0.843040276
C 27.4421271 142.491291 -0.769289075
C 27.3829386 143.896808 -0.811003339
C 28.6904136 144.672457 -0.921264392
C 28.6716838 146.128434 -0.965402726
C 29.9445953 142.53803 -0.944969032
C 29.9555686 143.986986 -0.982884857
C 31.1994361 144.661461 -1.04626418
C 31.2210873 146.107902 -1.02972991
C 32.4225349 142.495977 -1.04598906
C 32.4392913 143.956919 -1.04906295
C 33.7118643 144.699336 -1.04217646
C 33.732173 146.154976 -1.03237031
C 34.9912943 142.612699 -1.15591606
C 34.9801588 144.021793 -1.08327668
C 36.2232001 144.748116 -1.07573889
C 36.2029498 146.166721 -1.0265682
C 37.4505292 142.558764 -1.28011945
C 37.470892 144.001039 -1.15647143
C 38.673091 144.761088 -0.978687702
C 38.6628453 146.174876 -0.941773093
C 39.9594286 142.529123 -1.1310603
C 39.9547646 143.99706 -1.12234902
C 41.1525038 144.744679 -1.07019508
C 41.1731368 146.173663 -0.933017752
C 42.4782627 142.538846 -1.25915302
C 42.4343644 144.011029 -1.12929074
C 43.7041133 144.727635 -1.08527054
C 43.6929988 146.18393 -1.04346208
C 44.9890851 142.540937 -1.18501667
C 44.9690779 143.995641 -1.13506397
C 46.2093688 144.775397 -1.18095987
C 46.1780651 146.241788 -1.15557507
C 47.4821973 142.543634 -1.38542934
C 47.4430153 144.021682 -1.24396884
C 48.6922199 144.721963 -1.23282193
C 48.6358654 146.158547 -1.10268718
C 49.9560152 142.572724 -1.34513158
C 49.955574 144.052406 -1.327003
C 51.2363174 144.743366 -1.29332286
C 51.2048767 146.177628 -1.15982091
C 52.4923309 142.524483 -1.30416117
C 52.4786219 143.967456 -1.3246523
C 53.6953938 144.7155 -1.16173659
C 53.6552227 146.161045 -0.967157272
C 54.9418975 142.538003 -1.16886853
C 54.9613511 143.945743 -1.09709113
C 56.1419097 144.729732 -0.8384923
C 56.1578381 146.191699 -0.748693412
C 57.3851719 142.513499 -0.900460092
C 57.3975106 144.004264 -0.735852596
C 58.6410583 144.732223 -0.740879902
C 58.6787562 146.190199 -0.721243654
C 59.8804966 142.621921 -1.09298483
C 59.8884909 144.02596 -0.915111285
C 61.1241776 144.74447 -0.827156981
C 61.1162626 146.17718 -0.759315668
C 62.3298143 142.566732 -0.985618928
C 62.4013151 144.01485 -0.848637772
C 63.6300874 144.701516 -0.773622469
C 63.6553174 146.132358 -0.672294656
C 64.9076268 142.560431 -0.851622087
C 64.8948033 143.99579 -0.848974508
C 66.1424182 144.741017 -0.756066477
C 66.1136654 146.12681 -0.666027196
C 67.4011016 142.584832 -0.881977528
C 67.4138079 144.031123 -0.793650387
C 68.6294639 144.738204 -0.864737281
C 68.6406688 146.144274 -0.835729751
C 69.8895551 142.580449 -0.871367399
C 69.8919945 144.035171 -0.921814662
C 71.1519848 144.716726 -0.799952365
C 71.118383 146.153498 -0.794392517
C 72.3638751 142.564357 -0.540284544
C 72.4314004 144.003834 -0.621917912
C 73.6540254 144.748042 -0.588124084
C 73.5931741 146.169923 -0.658839083
C 74.9000257 142.571947 -0.334635715
C 74.9012933 144.031259 -0.514164394
C 76.1405373 144.768078 -0.530507976
C 76.1253214 146.15131 -0.565046641
C 77.3655649 142.539743 -0.252132949
C 77.3651049 144.041046 -0.412042021
C 78.5913842 144.720298 -0.400279661
C 78.6210845 146.172398 -0.585805566
C 79.823148 142.506884 -0.204401946
C 79.8127817 143.985199 -0.300007572
C 81.0618929 144.681761 -0.151942281
C 81.0745349 146.111052 -0.276319557
C 82.3316735 142.525612 0.000573236134
C 82.2937232 143.974039 -0.0329707943
C 83.5019716 144.677181 0.0375965977
C 83.521875 146.125122 -0.0397429088
C 84.8007841 142.4938 0.211097125
C 84.749419 143.937116 0.217826148
C 86.0252694 144.712816 0.376471572
C 86.0268115 146.155317 0.281624939
C 87.297295 142.508844 0.480071505
C 87.2668396 143.95962 0.500830316
C 88.4793773 144.667453 0.617191369
C 88.5090043 146.062794 0.546671326
C 89.7738168 142.557466 0.674625735
C 89.7462368 143.973785 0.79414015
C 91.0180206 144.660008 0.837058206
C 90.9708419 146.125288 0.738104734
C 92.3001048 142.519207 0.82525886
C 92.27912 143.980065 0.830506134
C 93.5102344 144.710853 0.935120136
C 93.4771263 146.170144 0.860022865
C 94.7647712 142.504055 0.887088698
C 94.7526296 143.958782 0.933879671
C 95.972744 144.72616 0.954771222
C 95.959061 146.131773 0.892873896
C 97.2119704 142.583776 0.934686426
C 97.221791 143.997403 0.953802885
C 98.4711761 144.739423 0.904814889
C 98.4489756 146.150443 0.886750665
C 99.7439838 142.600405 0.78333943
C 99.7078354 144.038111 0.792019417
C 101.02471 144.688214 0.682656874
C 101.005 146.146566 0.747687206
C 102.225525 142.528388 0.746361332
C 102.235423 143.966584 0.680733408
C 103.486279 144.719331 0.646992904
C 103.464436 146.1787 0.791566091
C 104.773067 142.546996 0.72055233
C 104.749549 144.012322 0.651163087
C 106.007779 144.714904 0.69074227
C 105.954573 146.139478 0.732468085
C 107.298034 142.552673 0.741653548
C 107.268271 144.013176 0.680755787
C 108.525955 144.752109 0.732286847
C 108.519651 146.193334 0.727638682
C 109.774104 142.558844 0.73393497
C 109.771417 144.029657 0.690984604
C 111.039161 144.720022 0.723759354
C 110.990035 146.172666 0.697379608
C 112.295352 142.58219 0.778048284
C 112.279104 144.029147 0.783649445
C 113.463785 144.762538 0.773156432
C 113.52668 146.236262 0.72817412
C 114.754295 142.58933 0.685352247
C 114.754304 144.07203 0.744670437
C 115.961969 144.757368 0.648692125
C 116.028902 146.189413 0.55525558
C 117.277883 142.569796 0.534347379
C 117.245123 144.040349 0.603422921
C 118.536026 144.77875 0.568434311
C 118.489633 146.195798 0.607710305
C 119.769391 142.588185 0.429847731
C 119.791296 144.01614 0.520342109
C 121.016564 144.768696 0.417633667
C 120.998958 146.202817 0.600990962
C 122.245533 142.62696 0.348259156
C 122.245674 144.079698 0.34440669
C 123.522008 144.725995 0.305810251
C 123.516939 146.163616 0.477524402
C 124.744928 142.619707 0.229171473
C 124.751872 144.052356 0.257500062
C 125.990414 144.810439 0.290683373
C 126.002473 146.192249 0.468070921
C 127.179738 142.635154 0.3982207
C 127.222261 144.054053 0.456124578
C 128.445725 144.778603 0.511357403
C 128.48584 146.187012 0.682515986
C 129.680127 142.609033 0.292249977
C 129.741843 144.000695 0.38541137
C 131.007882 144.724634 0.539853181
C 131.019773 146.177588 0.670267114
C 132.17621 142.562335 0.511660603
C 132.23525 144.013672 0.489452513
C 133.453762 144.754274 0.620465035
C 133.496852 146.187286 0.730631099
C 134.694759 142.587645 0.625973718
C 134.690519 144.033264 0.650360301
C 135.945827 144.708824 0.585955378
C 135.996759 146.1578 0.601570627
C 137.173607 142.540413 0.464739729
C 137.220825 144.008447 0.521372495
C 138.478149 144.774085 0.522744355
C 138.474219 146.192397 0.490482545
C 139.675845 142.585979 0.606446203
C 139.697501 144.055513 0.549427288
C 140.988165 144.737276 0.562831783
C 140.943825 146.212281 0.535405553
C 142.186775 142.543177 0.645621958
C 142.208451 143.990217 0.582418627
C 143.40908 144.72664 0.60952659
C 143.445685 146.176691 0.576017397
C 144.724506 142.511723 0.781760913
C 144.653753 143.996604 0.691084027
C 145.902809 144.726385 0.689531573
C 145.946029 146.158869 0.578477927
C 147.244009 142.575362 0.838527725
C 147.203754 144.025678 0.772976576
C 148.450873 144.735723 0.736830785
C 148.471606 146.148407 0.552656399
C 149.702117 142.595316 0.697413271
C 149.720119 144.017116 0.647671529
C 150.957535 144.696852 0.443909353
C 150.920609 146.145488 0.403845621
C 152.244861 142.511986 0.508298985
C 152.231147 144.015776 0.417595529
C 153.452442 144.706754 0.180817341
C 153.424936 146.113064 0.0882343109
C 154.668798 142.522951 0.281484219
C 154.687343 143.975554 0.133681918
C 155.939962 144.626103 0.0352079263
C 155.94886 146.112534 -0.0303273961
C 157.173355 142.488282 0.186811281
C 157.193153 143.887086 0.0969914086
C 158.391114 144.669272 -0.0036087832
C 158.399087 146.159386 -0.0246792713
C 159.696165 142.599575 0.0256535467
C 159.670054 144.00909 -0.0541443643
C 160.912024 144.686882 -0.100079344
C 160.930261 146.159012 -0.205175165
C 162.17163 142.491188 -0.0464838087
C 162.166491 143.988937 -0.174028083
C 163.431687 144.638381 -0.146507251
C 163.452553 146.09657 -0.162892924
C 164.658801 142.518746 0.0369437665
C 164.659623 143.945652 -0.028780031
C 165.919283 144.697416 0.0691361013
C 165.880894 146.115789 0.113679266
C 167.115987 142.578458 0.0989589633
C 167.131276 143.987589 0.171458963
C 168.399512 144.684133 0.293317154
C 168.418798 146.141042 0.297587274
C 169.633709 142.525386 0.135417423
C 169.57619 143.92905 0.173602502
C 170.845099 144.677628 0.161290214
C 170.894292 146.14665 0.195643413
C 172.151229 142.551954 0.0732695434
C 172.139155 144.004477 0.133140654
C 173.369631 144.742494 0.0880230386
C 173.371274 146.192031 0.16722233
C 174.606664 142.566447 -0.0271304099
C 174.624177 144.037103 0.0424002709
C 175.868207 144.762487 0.0115629458
C 175.842411 146.210125 -0.0116920378
C 177.099005 142.573966 -0.172571953
C 177.129913 144.044564 -0.0355172956
C 178.364235 144.748531 -0.121107036
C 178.343806 146.171252 -0.13248259
C 179.576233 142.484539 -0.242668242
C 179.576958 143.953173 -0.241311081
C 180.83997 144.699351 -0.25311388
C 180.828604 146.161765 -0.222920998
C 182.060145 142.544276 -0.194197974
C 182.091045 143.981248 -0.164824698
C 183.321944 144.703627 -0.0225922168
C 183.318615 146.153773 -0.000232891534
C 184.607309 142.542159 0.0252708391
C 184.586139 144.000164 0.024366634
C 185.867378 144.723542 0.0389888658
C 185.853753 146.156247 0.0806662531
C 187.061514 142.550939 0.0807456905
C 187.069438 143.981404 0.103294216
C 188.293386 144.696089 0.126096209
C 188.347604 146.145392 0.137911633
C 189.558001 142.529231 0.192544596
C 189.53277 143.953496 0.199526871
C 190.832725 144.704756 0.264644262
C 190.787411 146.094141 0.152196608
C 192.060193 142.58918 0.030083958
C 192.046805 144.012552 0.163823848
C 193.35044 144.695473 0.0362978426
C 193.331159 146.125085 0.0384036041
C 194.588787 142.579386 0.0193620914
C 194.637664 143.967494 0.0836064944
C 195.86134 144.716631 0.0871883239
C 195.867635 146.219384 0.0202520272
C 197.06728 142.551588 0.343542665
C 197.120946 143.998732 0.208324891
C 198.335682 144.690623 0.266697673
C 198.391532 146.157873 0.165832049
C 199.549763 142.553432 0.355382491
C 199.578924 143.9802 0.415583387
C 200.85512 144.678035 0.476164108
C 200.861105 146.20047 0.363096354
C 202.099071 142.560614 0.449380862
C 202.15155 143.998047 0.472431843
C 203.383111 144.711265 0.245787379
C 203.353492 146.183768 0.151434516
C 204.566645 142.535431 0.264445926
C 204.606257 143.996432 0.227648379
C 205.851876 144.704983 0.108195473
C 205.874331 146.176829 0.0623833967
C 207.054026 142.567275 0.317209811
C 207.083559 143.986295 0.236185494
C 208.307521 144.685995 0.218854763
C 208.352015 146.153732 0.218750944
C 209.569947 142.54137 0.186491105
C 209.56203 143.991858 0.197046615
C 210.78921 144.724069 0.230818428
C 210.808004 146.135312 0.349804558
C 212.088604 142.579089 0.0675466304
C 212.038905 143.973347 0.128374044
C 213.290847 144.680663 0.20653272
C 213.305945 146.115926 0.304278164
C 214.616595 142.53402 -0.0472218732
C 214.558736 144.008896 0.0507262202
C 215.821266 144.71457 0.15039054
C 215.789212 146.123582 0.250873004
C 217.055923 142.547933 0.0607581232
C 217.048733 144.00746 0.115177601
C 218.321705 144.710497 0.0741649938
C 218.297833 146.14082 0.113451238
C 219.56995 142.494403 -0.0250049679
C 219.606636 143.950599 0.0511648872
C 220.842742 144.691969 0.076009226
C 220.814599 146.165407 0.0929697285
C 222.067486 142.561345 -0.0735944888
C 222.104844 143.973299 -0.0735943459
C 223.328827 144.678143 -0.116559639
C 223.277273 146.150781 -0.0229054878
C 224.568778 142.499317 -0.183653643
C 224.588292 143.957613 -0.162320754
C 225.811775 144.651357 -0.110618826
C 225.791279 146.066787 -0.0403198687
C 227.033141 142.460254 -0.189094868
C 227.027722 143.926161 -0.162572194
C 228.242638 144.622375 -0.00183641867
C 228.218316 146.074378 0.142684419
C 229.518456 142.4928 -0.195501346
C 229.49554 143.921132 -0.14961626
C 230.727531 144.647178 -0.109719875
C 230.711147 146.071755 0.0815554125
C 232.003694 142.556008 -0.145812457
C 232.029518 143.966224 -0.127488166
C 233.259371 144.690575 -0.119312545
C 233.254046 146.077069 0.0924189475
C 234.503884 142.541492 -0.274873337
C 234.563846 143.994762 -0.20449111
C 235.779692 144.704993 0.0102520333
C 235.780928 146.11063 0.208724203
C 237.037897 142.557266 -0.195588283
C 237.048493 144.008801 -0.11525136
C 238.291942 144.69697 0.116243233
C 238.338026 146.101376 0.280815938
C 239.494478 142.478822 0.0237650171
C 239.519057 143.872202 0.117437579
C 240.789895 144.639037 0.230498586
C 240.774484 146.111595 0.321387351
C 241.98349 142.528652 -0.032248115
C 242.005272 143.903217 0.149307709
C 243.249625 144.670273 0.162881098
C 243.219299 146.1099 0.178064085
C 244.451092 142.507703 -0.0731750801
C 244.498372 143.941722 0.05970714
C 245.714995 144.673056 -0.012465401
C 245.721772 146.107123 -0.0317077211
C 246.95545 142.49955 -0.135733463
C 246.961282 143.943253 -0.0668115482
C 248.174471 144.649181 -0.124383672
C 248.19657 146.09103 -0.0671956716
C 0.0320612589 146.816501 0.0124241544
C 0.0386906677 148.245951 0.180390494
C 1.27995386 149.011271 0.309200701
C 1.26439425 150.456283 0.378079027
C 2.54280246 146.85513 0.269137437
C 2.56458488 148.289512 0.268534001
C 3.80358342 148.996794 0.310773456
C 3.8037764 150.453128 0.388800959
C 5.05408726 146.837512 0.201884258
C 5.01225155 148.278071 0.236672297
C 6.29734524 149.017061 0.295143396
C 6.28700247 150.432611 0.383994588
C 7.51423724 146.878096 0.175601337
C 7.54210904 148.315554 0.256818384
C 8.76708126 148.974989 0.268379292
C 8.75335097 150.410669 0.334855861
C 10.0216837 146.847227 0.133435828
C 9.98928105 148.227363 0.24674411
C 11.1985194 149.003097 0.19525089
C 11.2477757 150.461276 0.226608356
C 12.5069157 146.839337 -0.0160619634
C 12.4920559 148.276982 0.0675685806
C 13.7242223 148.967227 0.106343659
C 13.6750632 150.418791 0.139737453
C 15.0193352 146.812072 -0.0290677978
C 14.9834247 148.252723 0.0433079042
C 16.1956231 148.964053 0.0884832428
C 16.2376323 150.390763 0.139964752
C 17.4794861 146.836125 -0.0342011115
C 17.4938935 148.258766 0.0380544319
C 18.723045 149.029181 0.0203275698
C 18.7311058 150.492572 -0.0356733649
C 19.9570294 146.863568 -0.103610285
C 19.9616405 148.282691 -0.0897740247
C 21.1819627 149.017952 -0.228515779
C 21.1982477 150.454281 -0.260755208
C 22.4407853 146.889772 -0.448121117
C 22.4305026 148.315662 -0.386908636
C 23.7323019 149.02109 -0.421549224
C 23.7778159 150.488189 -0.31478033
C 24.9463444 146.926394 -0.764395683
C 24.9811435 148.323224 -0.628522835
C 26.2032475 149.033364 -0.76681517
C 26.2267593 150.494965 -0.593569633
C 27.4246724 146.871532 -0.919889757
C 27.4261827 148.319177 -0.957212829
C 28.6913474 149.041201 -1.03216385
C 28.7015648 150.484508 -0.942943017
C 29.9405158 146.853434 -0.999909491
C 29.948737 148.323843 -1.04636219
C 31.2042865 149.082026 -0.974663777
C 31.230746 150.512467 -0.920991965
C 32.4347199 146.881288 -0.985646113
C 32.4817991 148.337895 -0.998218132
C 33.6704349 149.085944 -1.07404062
C 33.6763541 150.546198 -1.03428212
C 34.9504157 146.928761 -1.02889493
C 34.9664813 148.363501 -1.05261344
C 36.2456054 149.079326 -1.0780489
C 36.2050322 150.529017 -1.00789143
C 37.4545665 146.911461 -1.04345319
C 37.4834081 148.375515 -1.04983022
C 38.7064662 149.060777 -1.0060444
C 38.6986272 150.497054 -0.917077302
C 39.9136832 146.861194 -0.932053117
C 39.9193925 148.333846 -0.985113816
C 41.1414647 149.024379 -0.877099353
C 41.1768442 150.472223 -0.853089276
C 42.4532188 146.890575 -0.928479525
C 42.4076908 148.335772 -0.899407306
C 43.6376161 149.092528 -0.970009487
C 43.663258 150.524876 -0.788459149
C 44.9138579 146.940843 -1.20644233
C 44.9228924 148.367982 -1.14809548
C 46.1955786 149.050211 -1.09429017
C 46.1854319 150.519527 -0.884804801
C 47.4229615 146.941317 -1.13272097
C 47.4489555 148.346982 -1.06379428
C 48.6929702 149.044131 -0.969077545
C 48.6909457 150.50524 -0.844081295
C 49.9072933 146.869957 -0.991394382
C 49.9198099 148.286869 -0.864800271
C 51.1529573 149.016853 -0.714854699
C 51.1293158 150.464465 -0.638277323
C 52.4403049 146.895621 -0.949556602
C 52.3755968 148.343355 -0.796010366
C 53.6455031 149.013791 -0.803507492
C 53.6383597 150.429902 -0.600064222
C 54.8885225 146.858302 -0.834806564
C 54.9180174 148.332552 -0.86971252
C 56.1890131 149.044814 -0.747330994
C 56.1424751 150.514709 -0.646249859
C 57.3808304 146.889774 -0.750103364
C 57.4291885 148.295657 -0.752708709
C 58.6791639 149.037806 -0.753452709
C 58.621801 150.496229 -0.815844752
C 59.9064121 146.933763 -0.68905739
C 59.9515942 148.361709 -0.700485575
C 61.1955389 149.100334 -0.743507727
C 61.1900009 150.506779 -0.790597321
C 62.4002358 146.85054 -0.669332013
C 62.4576755 148.355034 -0.746831282
C 63.7277259 149.026874 -0.795490715
C 63.6824138 150.493102 -0.79955585
C 64.8792409 146.820812 -0.539429049
C 64.9268227 148.308053 -0.606378081
C 66.1906507 149.057941 -0.682362289
C 66.2213036 150.523367 -0.710073275
C 67.4022302 146.916707 -0.826298043
C 67.4477857 148.350683 -0.77910058
C 68.7136014 149.038979 -0.812197739
C 68.6875167 150.551237 -0.778166488
C 69.8884191 146.876293 -0.831674835
C 69.9518025 148.340525 -0.786025982
C 71.1651951 149.050141 -0.856572149
C 71.1568826 150.545839 -0.876059512
C 72.3618698 146.892346 -0.744308229
C 72.4070493 148.319353 -0.866682465
C 73.649141 149.071473 -0.86514638
C 73.6395613 150.505242 -0.798788039
C 74.8647211 146.87072 -0.738636674
C 74.8803378 148.34227 -0.878173609
C 76.1268322 149.122835 -0.80379091
C 76.1261954 150.549376 -0.633474198
C 77.3847286 146.930163 -0.618022203
C 77.3472351 148.367206 -0.766105806
C 78.6066958 149.046879 -0.770835684
C 78.6145972 150.48556 -0.677665037
C 79.8375187 146.885058 -0.595736138
C 79.8541983 148.331627 -0.685638829
C 81.1228814 149.049712 -0.46597558
C 81.0796326 150.472133 -0.491170574
C 82.3088031 146.861074 -0.180320486
C 82.2949555 148.297885 -0.1853928
C 83.512739 149.003987 -0.0277420023
C 83.5567679 150.417302 -0.0769833471
C 84.8073263 146.835551 0.0788786429
C 84.7760948 148.284585 0.0732517226
C 86.0245179 148.993067 0.264764405
C 86.0343956 150.433515 0.344936001
C 87.2776015 146.82596 0.401657831
C 87.2235374 148.246117 0.410936293
C 88.4868285 148.987814 0.553901887
C 88.4894793 150.433989 0.530030676
C 89.7356654 146.789807 0.675515993
C 89.7174887 148.245882 0.709127442
C 90.9867086 148.989535 0.645769069
C 90.9812858 150.399026 0.482583284
C 92.1993771 146.866609 0.758240308
C 92.2500496 148.281504 0.688388639
C 93.4836693 148.979938 0.683939178
C 93.5314542 150.45706 0.59460432
C 94.7450412 146.863999 0.862970768
C 94.7677653 148.291794 0.755616323
C 96.001555 149.046945 0.695999185
C 95.9848354 150.516547 0.596475369
C 97.1851253 146.861649 0.849214727
C 97.2376263 148.278627 0.731903991
C 98.48158 149.00248 0.65189937
C 98.4851033 150.455784 0.554595327
C 99.7263713 146.863699 0.790264971
C 99.7767321 148.302726 0.674784128
C 101.003711 149.069105 0.612819602
C 100.976474 150.503469 0.634285577
C 102.23369 146.875991 0.70488561
C 102.233774 148.331672 0.637292735
C 103.499652 149.045425 0.6671275
C 103.429154 150.520851 0.655306312
C 104.712555 146.867989 0.752640886
C 104.730803 148.337678 0.760348534
C 105.970599 149.063814 0.791191884
C 105.969728 150.518649 0.745358264
C 107.227449 146.927521 0.710731261
C 107.206406 148.320232 0.808770759
C 108.49222 149.048424 0.791222534
C 108.48649 150.476699 0.745158989
C 109.739303 146.861011 0.75518135
C 109.731274 148.332445 0.790157807
C 110.98586 149.020511 0.726321743
C 110.939028 150.508352 0.742375232
C 112.264333 146.892191 0.706896236
C 112.253969 148.337228 0.704788963
C 113.486037 149.083407 0.704318078
C 113.469834 150.523104 0.617106859
C 114.799325 146.953681 0.639691023
C 114.763638 148.386635 0.687489011
C 116.005354 149.097935 0.713651581
C 115.945241 150.526024 0.671457268
C 117.278967 146.888049 0.576772435
C 117.235944 148.376 0.622319653
C 118.512568 149.081311 0.669257198
C 118.464546 150.52433 0.623898488
C 119.741498 146.961824 0.69195185
C 119.702159 148.377375 0.743032211
C 120.945703 149.073222 0.721014007
C 120.973935 150.535999 0.69891625
C 122.249268 146.918927 0.656655031
C 122.2241 148.398549 0.732936053
C 123.519301 149.099913 0.706663262
C 123.457038 150.536407 0.675809066
C 124.729276 146.948432 0.501496456
C 124.685142 148.380091 0.62020239
C 125.952142 149.114119 0.662217865
C 125.969206 150.556475 0.703001745
C 127.214142 146.916818 0.586203092
C 127.175074 148.364601 0.625587243
C 128.44054 149.109589 0.685090177
C 128.50839 150.531923 0.676627118
C 129.724657 146.894308 0.702239643
C 129.709972 148.403262 0.65529971
C 130.999764 149.118156 0.717763818
C 130.952377 150.564292 0.766605908
C 132.233976 146.906998 0.712818449
C 132.214334 148.330467 0.793062537
C 133.450703 149.10723 0.75981178
C 133.426173 150.549193 0.734365993
C 134.743202 146.887162 0.668583217
C 134.661106 148.304704 0.671819738
C 135.941656 149.012468 0.666186995
C 135.921902 150.478708 0.58813774
C 137.239658 146.891166 0.53005385
C 137.207973 148.350408 0.578879024
C 138.443602 149.052106 0.512993613
C 138.39276 150.500929 0.550716555
C 139.706139 146.909464 0.450625203
C 139.703861 148.358986 0.49369329
C 140.9414 149.067719 0.527484411
C 141.010395 150.491356 0.596685033
C 142.203677 146.84731 0.581633559
C 142.211856 148.338573 0.477199665
C 143.477324 149.054297 0.443951998
C 143.428292 150.493227 0.460947177
C 144.721746 146.850083 0.518968749
C 144.721586 148.335089 0.410368422
C 145.918739 149.022562 0.213495249
C 145.909585 150.479437 0.232227057
C 147.199804 146.885012 0.465130879
C 147.14633 148.312184 0.227507286
C 148.374149 149.038692 0.108460921
C 148.400499 150.4984 0.0344287213
C 149.715578 146.840256 0.461634159
C 149.670813 148.280345 0.234845208
C 150.900388 148.983508 0.115785224
C 150.914523 150.471256 0.0338747865
C 152.129648 146.853499 0.176135535
C 152.162201 148.288889 0.0296566026
C 153.377724 148.971311 -0.0381730637
C 153.41 150.389761 -0.0860618576
C 154.654688 146.779557 -0.0452051954
C 154.630391 148.254402 -0.152936379
C 155.895161 148.925693 -0.149579746
C 155.926868 150.402627 -0.0869128844
C 157.19174 146.840421 -0.0525982799
C 157.154007 148.263959 -0.172458924
C 158.431518 149.033253 -0.230679253
C 158.385187 150.437192 -0.167845896
C 159.67365 146.882747 -0.175396348
C 159.663786 148.333271 -0.30619706
C 160.939881 149.00465 -0.347807871
C 160.890797 150.425719 -0.321170284
C 162.195366 146.838264 -0.198116054
C 162.177616 148.270428 -0.316029992
C 163.423378 148.988975 -0.251324214
C 163.421714 150.420751 -0.290388883
C 164.681248 146.81992 -0.0487734859
C 164.65863 148.297796 -0.112959319
C 165.928731 149.023976 0.0496384937
C 165.937328 150.453507 -0.0674748537
C 167.156243 146.899244 0.218762186
C 167.14514 148.321663 0.125900086
C 168.381055 148.998741 0.209602593
C 168.407325 150.45313 0.127190593
C 169.631451 146.840183 0.295679803
C 169.627748 148.311178 0.306331698
C 170.853735 149.048545 0.294800253
C 170.8699 150.511035 0.25945755
C 172.113715 146.922429 0.238256478
C 172.108169 148.352124 0.369393899
C 173.393452 149.07922 0.485455468
C 173.406435 150.495264 0.377958014
C 174.593301 146.961833 0.0530837875
C 174.665601 148.391413 0.258054925
C 175.921339 149.093334 0.174197294
C 175.930576 150.565667 0.0906209853
C 177.086254 146.873541 -0.0354272899
C 177.133257 148.331066 0.0336092537
C 178.388956 149.052802 -0.0715962847
C 178.396144 150.493418 -0.0568839392
C 179.579425 146.91953 -0.207181563
C 179.60581 148.31713 -0.0777046569
C 180.825577 149.038122 -0.103836682
C 180.851675 150.45762 -0.105572815
C 182.087143 146.867847 -0.0860164147
C 182.063851 148.32726 -0.119763788
C 183.303176 149.021944 -0.156013795
C 183.335112 150.475995 -0.2845998
C 184.591101 146.873594 -0.0562675708
C 184.580707 148.32751 -0.105101975
C 185.838324 149.000273 -0.067183243
C 185.838007 150.458509 -0.0673903624
C 187.084475 146.84128 0.102788202
C 187.097916 148.267017 0.0210532081
C 188.333782 149.036959 0.00307546842
C 188.330352 150.49828 -0.0445188257
C 189.559397 146.904903 0.0685157475
C 189.549154 148.318493 -0.0470855597
C 190.775656 149.029955 -0.0509519309
C 190.827836 150.532526 -0.200469989
C 192.054366 146.873755 0.0630530625
C 192.066784 148.326739 -0.00749867187
C 193.274455 149.044618 -0.072085179
C 193.277404 150.505883 -0.154081426
C 194.577125 146.877062 0.0405101512
C 194.521438 148.340567 -0.0456457535
C 195.779439 149.089082 -0.00867364621
C 195.820296 150.474998 -0.217703705
C 197.111527 146.91161 0.137522886
C 197.072473 148.359526 0.139716616
C 198.308125 149.11655 0.0813312038
C 198.337864 150.471769 -0.091731586
C 199.600324 146.905193 0.302022638
C 199.581045 148.337039 0.167391646
C 200.839287 149.046138 0.0594385319
C 200.833157 150.504027 -0.0968861212
C 202.131417 146.881311 0.14202912
C 202.121882 148.307259 0.0338220281
C 203.394255 149.01107 -0.138330486
C 203.381629 150.418904 -0.260408383
C 204.599244 146.873004 0.048437901
C 204.629566 148.336087 -0.0235236419
C 205.896972 149.015991 0.0339486156
C 205.884104 150.466055 -0.0241494401
C 207.115202 146.88911 0.0864724442
C 207.143677 148.289581 0.062105302
C 208.366781 149.05197 0.211885851
C 208.30958 150.45618 0.225758628
C 209.598658 146.920757 0.342459918
C 209.59797 148.323472 0.335203763
C 210.840757 149.048578 0.291836421
C 210.798701 150.496674 0.304315892
C 212.017821 146.863324 0.361642822
C 212.046384 148.301895 0.327995747
C 213.259976 149.039543 0.350814953
C 213.28368 150.414654 0.359844605
C 214.54808 146.863722 0.303934681
C 214.527368 148.285648 0.364941867
C 215.754864 149.020863 0.459763414
C 215.764554 150.46466 0.393587721
C 217.047299 146.826887 0.22045918
C 217.019121 148.310824 0.377151461
C 218.274348 149.031557 0.163534256
C 218.297246 150.468737 0.079549773
C 219.534897 146.892767 0.143856789
C 219.508868 148.324682 0.153994381
C 220.741506 149.035989 0.195133474
C 220.802312 150.481128 0.0783229246
C 222.029711 146.887516 0.0718675425
C 222.033395 148.299393 0.0870770099
C 223.311309 149.006113 -0.0113780125
C 223.30205 150.483259 0.0679803406
C 224.539194 146.841421 -0.103126379
C 224.554695 148.288353 -0.000394337457
C 225.786014 148.987021 0.0919140021
C 225.789837 150.433939 0.0202143264
C 227.022036 146.839915 0.122995354
C 227.015634 148.230829 0.210599411
C 228.218061 148.968564 0.320751359
C 228.196624 150.453694 0.335837614
C 229.484517 146.831523 0.138387941
C 229.443046 148.220602 0.343893523
C 230.691404 148.951304 0.414721979
C 230.703313 150.37052 0.417832567
C 231.959993 146.770243 0.167135629
C 231.962723 148.253645 0.332762168
C 233.232023 148.970381 0.343050803
C 233.276028 150.415217 0.371762938
C 234.502005 146.790604 0.176177266
C 234.51242 148.26724 0.285862179
C 235.762849 148.955543 0.455478227
C 235.764074 150.411846 0.465527286
C 237.043595 146.788468 0.34758256
C 237.021324 148.221353 0.432339513
C 238.280028 148.933721 0.419949627
C 238.24757 150.395653 0.420962679
C 239.547614 146.827814 0.400268079
C 239.504091 148.28968 0.443672381
C 240.752926 149.014941 0.388783188
C 240.758373 150.445262 0.360543411
C 242.014556 146.828979 0.259593341
C 241.97681 148.273394 0.324001133
C 243.225824 149.037583 0.262485703
C 243.236105 150.465566 0.236769855
C 244.47549 146.842839 0.0660925013
C 244.441583 148.2996 0.115532133
C 245.68452 148.993727 -0.0653184444
C 245.68049 150.412944 0.165231673
C 246.948338 146.856932 -0.00494049989
C 246.942939 148.319451 -0.0602013588
C 248.183209 148.985131 0.163734021
C 248.179044 150.449168 0.222096479
C 0.0224414827 151.198841 0.273798494
C 0.0434972385 152.613141 0.348301716
C 1.30046024 153.260055 0.54571402
C 1.28965943 154.718303 0.616413449
C 2.52376667 151.110179 0.412398967
C 2.51961381 152.522735 0.532547592
C 3.78960707 153.287002 0.472343339
C 3.7722999 154.692378 0.634839241
C 5.04446445 151.1271 0.489279451
C 5.03736218 152.561879 0.484572741
C 6.23808602 153.306122 0.522002737
C 6.25316365 154.758894 0.533788284
C 7.50034169 151.191954 0.463922187
C 7.49970752 152.577877 0.570586885
C 8.76195115 153.279197 0.469527432
C 8.72754859 154.716164 0.497921168
C 9.99367758 151.160243 0.33315004
C 10.0054627 152.648338 0.373055332
C 11.2198089 153.364884 0.291615969
C 11.2132043 154.768024 0.343326996
C 12.4831106 151.163488 0.185817431
C 12.4475084 152.588961 0.214604789
C 13.7148801 153.264952 0.163349763
C 13.7160687 154.75499 0.12341621
C 14.9551947 151.169893 0.174664699
C 14.9796052 152.587011 0.110870107
C 16.1848465 153.370225 -0.0651672103
C 16.2068955 154.789547 -0.0743909453
C 17.4770555 151.164047 0.0527052614
C 17.425435 152.619414 0.0153776661
C 18.6989408 153.355244 -0.0541342664
C 18.6516929 154.792012 -0.169947926
C 19.9661461 151.204722 -0.151941257
C 19.9535645 152.60192 -0.0733542202
C 21.2010735 153.330474 -0.118573988
C 21.1742166 154.796146 -0.133034941
C 22.4816253 151.18893 -0.216732637
C 22.4635247 152.64245 -0.221783413
C 23.7319552 153.350693 -0.225454291
C 23.6854846 154.793801 -0.164235725
C 25.001274 151.2213 -0.465965677
C 24.9799065 152.654922 -0.359841937
C 26.185413 153.357279 -0.335567255
C 26.202275 154.750283 -0.337920032
C 27.4577195 151.193702 -0.748932244
C 27.4248453 152.61451 -0.551052583
C 28.6937064 153.335743 -0.621159726
C 28.671911 154.803639 -0.533861116
C 29.9613848 151.252012 -0.881659843
C 29.941211 152.660579 -0.772993206
C 31.1827685 153.377855 -0.773363013
C 31.1657502 154.795159 -0.760172319
C 32.4481559 151.264522 -0.96851208
C 32.4630129 152.683482 -0.885265639
C 33.6897986 153.388011 -0.915966529
C 33.7386043 154.860276 -0.814526789
C 34.947986 151.273224 -0.998782477
C 34.9552231 152.689559 -0.941766705
C 36.1808491 153.425415 -0.814178205
C 36.2214659 154.842829 -0.76491298
C 37.4484616 151.226289 -0.942806834
C 37.3989337 152.680005 -0.811377862
C 38.7065665 153.397632 -0.707842837
C 38.7109849 154.852741 -0.623833757
C 39.9707791 151.242012 -0.861161724
C 39.8936197 152.658334 -0.720521523
C 41.1934863 153.389522 -0.619583753
C 41.1694598 154.848854 -0.525191683
C 42.4266277 151.214986 -0.744616561
C 42.4289892 152.695674 -0.712593058
C 43.6873926 153.372729 -0.639049342
C 43.6890528 154.819714 -0.477782038
C 44.9265473 151.219917 -0.726837591
C 44.9169845 152.662646 -0.665697297
C 46.145406 153.362727 -0.483847793
C 46.1795489 154.77026 -0.340016331
C 47.4098567 151.222584 -0.852269298
C 47.4115541 152.636757 -0.60983535
C 48.6483545 153.365146 -0.465730683
C 48.6809655 154.797136 -0.380743836
C 49.9205262 151.226251 -0.72050825
C 49.9093422 152.660834 -0.488613268
C 51.1818786 153.357447 -0.471458458
C 51.1708353 154.813634 -0.379860722
C 52.416251 151.190553 -0.58083211
C 52.401629 152.634378 -0.480473375
C 53.6302362 153.323792 -0.453322715
C 53.6803683 154.801024 -0.51271744
C 54.8681382 151.173914 -0.535702235
C 54.9025622 152.689821 -0.5296097
C 56.1690705 153.379687 -0.585423508
C 56.1298913 154.827899 -0.539120993
C 57.3607325 151.23863 -0.751747473
C 57.4070232 152.640887 -0.725826819
C 58.6842597 153.418962 -0.706880352
C 58.6884517 154.88526 -0.731480297
C 59.9123832 151.251099 -0.840523523
C 59.9352311 152.680484 -0.861146321
C 61.1722873 153.38922 -0.845129309
C 61.128987 154.805499 -0.757658606
C 62.437421 151.219404 -0.854222597
C 62.4388835 152.66108 -0.853286755
C 63.693937 153.371989 -0.753646501
C 63.6527457 154.818715 -0.660614934
C 64.9770605 151.23234 -0.73941892
C 64.9300698 152.719596 -0.751380173
C 66.2054454 153.425331 -0.68244891
C 66.1970367 154.849123 -0.655390071
C 67.4686808 151.250636 -0.728731462
C 67.428956 152.687699 -0.707791488
C 68.7116293 153.408773 -0.728316883
C 68.7075365 154.862893 -0.689809306
C 69.9167728 151.279074 -0.811524174
C 69.9135887 152.649528 -0.729765081
C 71.1551589 153.420493 -0.741061372
C 71.1655163 154.887394 -0.710687228
C 72.4012937 151.257304 -0.801713697
C 72.4135417 152.703316 -0.753145437
C 73.6733596 153.440454 -0.683925911
C 73.6460113 154.862295 -0.725587519
C 74.8721786 151.233351 -0.640103401
C 74.8932808 152.650287 -0.639491787
C 76.1134279 153.393109 -0.679879361
C 76.1143073 154.808172 -0.695429649
C 77.352427 151.219867 -0.634909461
C 77.3922832 152.657324 -0.627954713
C 78.6389915 153.367522 -0.641084685
C 78.6052483 154.779978 -0.502241191
C 79.8691885 151.179677 -0.666752666
C 79.8757335 152.642604 -0.593404489
C 81.1063456 153.333222 -0.441017128
C 81.0922171 154.799386 -0.336885284
C 82.3256147 151.106529 -0.299903451
C 82.3297883 152.580816 -0.304585566
C 83.5862534 153.260373 -0.0394988111
C 83.5743197 154.714536 -0.0921986849
C 84.8198018 151.129073 0.174260014
C 84.8368105 152.547115 0.165660822
C 86.0161744 153.312072 0.287970822
C 86.0415519 154.773658 0.170632273
C 87.2427907 151.189924 0.453768768
C 87.272541 152.601815 0.386266843
C 88.5390204 153.31896 0.364034651
C 88.5621616 154.760562 0.177446031
C 89.7358684 151.118544 0.384586821
C 89.7435692 152.569132 0.350382389
C 90.97395 153.297107 0.298264884
C 91.0441284 154.738524 0.158325065
C 92.2647342 151.137548 0.470045566
C 92.2381491 152.588901 0.349425639
C 93.492547 153.322812 0.325432434
C 93.4804934 154.772547 0.208109256
C 94.7448899 151.178912 0.517085759
C 94.7755494 152.646729 0.403124412
C 96.0045185 153.372525 0.401379166
C 96.0205357 154.76465 0.22179379
C 97.2419515 151.180477 0.540836509
C 97.2215991 152.623922 0.470105275
C 98.4955169 153.365248 0.451804654
C 98.5025169 154.802172 0.331988824
C 99.7097194 151.239839 0.578775607
C 99.7302338 152.658232 0.419654032
C 101.008469 153.372674 0.411703204
C 100.998344 154.804406 0.437324167
C 102.233667 151.229293 0.59469644
C 102.249853 152.668007 0.55176453
C 103.489564 153.365898 0.621182265
C 103.502205 154.851385 0.451493865
C 104.694527 151.245126 0.667052821
C 104.69495 152.650361 0.659610089
C 105.955146 153.349323 0.737437346
C 105.975274 154.803866 0.662794975
C 107.23774 151.228298 0.779612526
C 107.196977 152.659193 0.769094535
C 108.442929 153.390508 0.835315011
C 108.418845 154.824296 0.788361937
C 109.725468 151.264936 0.832033168
C 109.674125 152.707696 0.77793044
C 110.950353 153.3832 0.816063581
C 110.973791 154.829753 0.77993014
C 112.246268 151.228136 0.637430888
C 112.204092 152.649877 0.70900966
C 113.466109 153.375764 0.719909203
C 113.449452 154.784637 0.715749804
C 114.696156 151.211204 0.653771002
C 114.710736 152.6497 0.693264554
C 115.955066 153.387956 0.708285238
C 115.963498 154.808478 0.675941431
C 117.228365 151.201294 0.717706293
C 117.178587 152.611158 0.736315102
C 118.415472 153.375999 0.719714469
C 118.457896 154.793298 0.652177508
C 119.714635 151.270202 0.634176426
C 119.678786 152.664031 0.680299254
C 120.965798 153.424407 0.649476852
C 120.941583 154.868831 0.662661489
C 122.178766 151.276474 0.69771381
C 122.186192 152.737572 0.669226551
C 123.50969 153.40529 0.659567385
C 123.439182 154.829733 0.657550834
C 124.706391 151.269496 0.638030186
C 124.728111 152.692109 0.616055168
C 125.955213 153.427217 0.723400336
C 125.958362 154.866304 0.738438372
C 127.200067 151.296157 0.69854455
C 127.212694 152.702763 0.703439915
C 128.441113 153.398289 0.762133962
C 128.439067 154.852056 0.878580309
C 129.704382 151.26905 0.737573355
C 129.687431 152.70191 0.772731957
C 130.962395 153.441226 0.752688618
C 130.987951 154.893456 0.794397225
C 132.195786 151.302325 0.71029905
C 132.206365 152.73606 0.660844179
C 133.445879 153.441186 0.615762742
C 133.453519 154.861598 0.687812271
C 134.683688 151.258029 0.661079067
C 134.673374 152.723342 0.669380621
C 135.920656 153.448893 0.666524173
C 135.912034 154.848603 0.605837197
C 137.124353 151.226093 0.586585568
C 137.095227 152.681733 0.656964116
C 138.427456 153.378688 0.63709177
C 138.452428 154.853055 0.604872847
C 139.732171 151.202969 0.554782272
C 139.702724 152.671 0.588722046
C 140.944784 153.342745 0.581807336
C 140.93746 154.791548 0.504045836
C 142.230503 151.196424 0.572525965
C 142.235599 152.628771 0.544998732
C 143.482881 153.362148 0.412958786
C 143.405303 154.812171 0.333045773
C 144.67313 151.196643 0.389832662
C 144.746471 152.682846 0.407350078
C 145.945732 153.385793 0.306384857
C 145.948221 154.797661 0.313400582
C 147.157597 151.229414 0.121741846
C 147.150035 152.619483 0.182398278
C 148.368989 153.349128 0.137756459
C 148.443804 154.772308 0.048011119
C 149.669212 151.183352 0.0363356373
C 149.642411 152.643295 0.0589798473
C 150.927185 153.318931 -0.122703574
C 150.896269 154.77509 -0.13162736
C 152.214629 151.114902 -0.120721558
C 152.157449 152.57931 -0.176567665
C 153.397839 153.318165 -0.20087
C 153.402267 154.750521 -0.258235985
C 154.65959 151.138473 -0.0898021818
C 154.672335 152.589653 -0.155885863
C 155.951256 153.3483 -0.133239389
C 155.920333 154.762378 -0.254319789
C 157.144485 151.177161 -0.0704032421
C 157.176644 152.600878 -0.126038013
C 158.415995 153.306776 -0.182282062
C 158.405885 154.789159 -0.333885886
C 159.648351 151.14773 -0.272364013
C 159.637477 152.578871 -0.152791879
C 160.928622 153.271628 -0.244822001
C 160.911162 154.73394 -0.344409327
C 162.157353 151.134142 -0.378608361
C 162.199157 152.552048 -0.294286141
C 163.435456 153.323946 -0.250563504
C 163.417606 154.749066 -0.312475764
C 164.670607 151.166738 -0.180598017
C 164.688432 152.628829 -0.177177245
C 165.892208 153.352164 -0.0691130167
C 165.896949 154.781222 -0.0961246228
C 167.159881 151.190172 0.0300808729
C 167.148224 152.621421 -0.0745856506
C 168.406923 153.340908 -0.0311739292
C 168.368279 154.780763 -0.0404770911
C 169.644499 151.210948 0.155628725
C 169.644325 152.658045 0.0885234584
C 170.916036 153.343297 0.00814124007
C 170.889555 154.79267 0.0164024327
C 172.123885 151.189456 0.250055427
C 172.146498 152.610404 0.0640463902
C 173.395119 153.370766 0.0930937166
C 173.412903 154.786693 -0.0241157692
C 174.645106 151.234536 0.19696088
C 174.648622 152.664437 0.0911271234
C 175.897364 153.370174 0.0853272746
C 175.911147 154.796932 0.0457424451
C 177.152365 151.237488 -0.0457629791
C 177.143186 152.600002 0.018576905
C 178.375638 153.34437 -0.106650078
C 178.394145 154.764999 -0.116281097
C 179.639778 151.166949 -0.088425034
C 179.625764 152.604307 -0.173728584
C 180.83191 153.369419 -0.173579072
C 180.837665 154.791838 -0.251603377
C 182.068396 151.184703 -0.176790325
C 182.084571 152.637795 -0.154135493
C 183.372807 153.340436 -0.124535139
C 183.359739 154.766001 -0.146326777
C 184.619725 151.177102 -0.128084839
C 184.614074 152.64601 -0.130921281
C 185.860992 153.349489 -0.18195541
C 185.819554 154.794372 -0.14746143
C 187.068747 151.212739 -0.039054592
C 187.133238 152.675436 -0.0964743164
C 188.345966 153.375701 -0.177910426
C 188.355654 154.826194 -0.222662718
C 189.568982 151.222581 -0.189725654
C 189.588139 152.656741 -0.185285946
C 190.840027 153.369184 -0.249208427
C 190.814524 154.770745 -0.219225418
C 192.088563 151.237799 -0.195477099
C 192.094415 152.664861 -0.160155349
C 193.333623 153.389743 -0.195106557
C 193.354108 154.815913 -0.236701984
C 194.549788 151.166341 -0.298066135
C 194.591281 152.659434 -0.285269452
C 195.87765 153.37005 -0.379816485
C 195.821861 154.818848 -0.36546562
C 197.021672 151.185604 -0.225552785
C 197.083492 152.61314 -0.377406605
C 198.363376 153.340321 -0.378890768
C 198.32965 154.804015 -0.38234677
C 199.580217 151.20961 -0.129069095
C 199.617715 152.655474 -0.166550702
C 200.858401 153.317625 -0.101311473
C 200.807799 154.78434 -0.120664205
C 202.078287 151.171094 -0.102791625
C 202.111057 152.605173 -0.0960943393
C 203.368249 153.312338 -0.113191013
C 203.317042 154.735932 -0.0697810624
C 204.625039 151.158103 -0.145611103
C 204.604677 152.597003 -0.03521084
C 205.80839 153.326993 0.00990936259
C 205.848009 154.779535 0.110434813
C 207.08571 151.170687 0.141742361
C 207.066533 152.630904 0.0909904543
C 208.30736 153.381128 0.237195395
C 208.309712 154.816515 0.238692681
C 209.538216 151.194451 0.214123887
C 209.54701 152.633619 0.300005809
C 210.745925 153.315365 0.36904342
C 210.750855 154.758649 0.429336015
C 212.041978 151.144217 0.368158218
C 212.006497 152.589341 0.483167461
C 213.253976 153.291721 0.436125599
C 213.233348 154.739585 0.340519879
C 214.477381 151.147647 0.388212388
C 214.494053 152.568309 0.376534514
C 215.772434 153.330724 0.235076517
C 215.809081 154.779781 0.276626211
C 217.000632 151.175998 0.168364408
C 217.01496 152.616776 0.116007593
C 218.278021 153.338432 0.0950355977
C 218.30094 154.7842 0.253110696
C 219.528547 151.179975 0.0275730691
C 219.590166 152.635341 0.0264194616
C 220.818744 153.335171 0.11170109
C 220.789419 154.776946 0.201478062
C 222.069467 151.205879 0.0718707654
C 222.0592 152.611528 0.142041921
C 223.277128 153.382309 0.124895855
C 223.297113 154.802366 0.167731246
C 224.539794 151.194124 0.0835831844
C 224.546618 152.633747 0.139891538
C 225.774173 153.355612 0.246737414
C 225.759928 154.809671 0.256926089
C 226.978019 151.213171 0.22284942
C 226.973578 152.634133 0.358228012
C 228.247414 153.291317 0.434158361
C 228.220795 154.728058 0.496108672
C 229.486291 151.129566 0.434202358
C 229.491944 152.583582 0.5229946
C 230.702902 153.284046 0.416841604
C 230.739035 154.706458 0.457735639
C 231.988289 151.097381 0.31730611
C 231.983057 152.525145 0.352719907
C 233.235677 153.265925 0.484590302
C 233.268421 154.702739 0.491182644
C 234.511911 151.141185 0.44648955
C 234.524355 152.551283 0.48671601
C 235.755076 153.283519 0.430394176
C 235.719965 154.696184 0.382248983
C 236.99039 151.162384 0.438261102
C 237.008483 152.605619 0.435200797
C 238.239058 153.304663 0.358995969
C 238.226217 154.783771 0.438813734
C 239.525336 151.128579 0.366959423
C 239.488731 152.614687 0.287491721
C 240.758171 153.330239 0.332965154
C 240.738325 154.761864 0.390315621
C 241.992654 151.183749 0.331866163
C 241.996033 152.63963 0.305135802
C 243.233616 153.337886 0.321544658
C 243.237283 154.799928 0.37669601
C 244.459358 151.162717 0.257020881
C 244.436651 152.626832 0.417799866
C 245.728799 153.322704 0.491330583
C 245.746622 154.755455 0.570559865
C 246.935178 151.157635 0.304820685
C 246.996578 152.598248 0.383757954
C 248.179521 153.306233 0.427020193
C 248.206946 154.777146 0.415368204
C 0.08303341 155.473309 0.554230907
C 0.0406106404 156.879846 0.57951571
C 1.26830609 157.62371 0.586030452
C 1.30366353 159.084157 0.602505877
C 2.5370939 155.406101 0.707051774
C 2.51865117 156.89213 0.70667274
C 3.74690637 157.622498 0.713710995
C 3.7711422 159.082288 0.749915857
C 4.98075951 155.469492 0.645200239
C 5.00564638 156.91137 0.715977623
C 6.25951011 157.620989 0.724044084
C 6.26774933 159.040808 0.736738025
C 7.47891522 155.47896 0.559050491
C 7.49546378 156.924366 0.596761252
C 8.73390747 157.618005 0.601217405
C 8.76146397 159.094882 0.711446727
C 9.98024425 155.454598 0.499189699
C 9.94855148 156.890119 0.524843891
C 11.2195594 157.618562 0.471222348
C 11.2360627 159.059094 0.508917783
C 12.4513979 155.495223 0.195876073
C 12.4623201 156.915821 0.271618172
C 13.7036236 157.668643 0.236945847
C 13.7466352 159.100356 0.332403385
C 14.9887555 155.463277 0.0640253506
C 14.9776824 156.913293 0.112432131
C 16.2113299 157.671973 0.0113335864
C 16.1931128 159.125625 0.115777232
C 17.4049661 155.510293 -0.186579713
C 17.4452709 156.956184 -0.120770298
C 18.7400548 157.67466 -0.0810706333
C 18.7159574 159.097843 0.0134546036
C 19.912707 155.546333 -0.128725949
C 19.965637 156.985762 -0.15935605
C 21.1897553 157.696948 -0.279439026
C 21.2123777 159.126675 -0.186183613
C 22.4447082 155.531375 -0.14580531
C 22.4852385 156.994981 -0.255755828
C 23.7215563 157.695078 -0.304586173
C 23.7285094 159.078579 -0.314046323
C 24.9252186 155.454015 -0.311917522
C 24.9606324 156.955066 -0.35553392
C 26.1748356 157.658577 -0.374123708
C 26.1801188 159.125554 -0.479598281
C 27.4533015 155.52617 -0.447042485
C 27.4643954 156.967706 -0.421595213
C 28.7163379 157.649415 -0.525696213
C 28.6782554 159.117192 -0.594146707
C 29.9344862 155.489183 -0.587700785
C 29.9776307 156.974719 -0.59810113
C 31.1654086 157.706049 -0.658244857
C 31.1811576 159.141304 -0.567380249
C 32.4152623 155.568427 -0.8294863
C 32.4083927 157.013114 -0.743567061
C 33.6718518 157.730823 -0.656464245
C 33.6877013 159.165149 -0.526076906
C 34.9928253 155.551658 -0.806681716
C 34.9549514 156.994525 -0.757562678
C 36.1673433 157.726253 -0.659144272
C 36.1413522 159.166536 -0.595451984
C 37.4482436 155.57979 -0.670170166
C 37.4213024 157.016574 -0.646123685
C 38.6947725 157.755395 -0.585572827
C 38.687341 159.176552 -0.502948919
C 39.9645439 155.582339 -0.584724501
C 39.9582641 157.050853 -0.607469456
C 41.2271087 157.73085 -0.560546668
C 41.2332414 159.213497 -0.453961347
C 42.482226 155.564166 -0.50305872
C 42.4435737 157.009743 -0.53591061
C 43.7115283 157.705462 -0.492346795
C 43.7044783 159.197259 -0.380750659
C 44.9988298 155.509164 -0.428138697
C 44.9607405 156.950623 -0.510866632
C 46.1817315 157.661446 -0.398418255
C 46.1688386 159.128165 -0.259250843
C 47.4384123 155.498494 -0.303896594
C 47.4376634 156.93029 -0.28618455
C 48.718351 157.675841 -0.223058949
C 48.6929913 159.16191 -0.160953918
C 49.921169 155.519464 -0.261369747
C 49.9099243 156.93224 -0.142231023
C 51.2071596 157.636947 -0.0528721924
C 51.1665594 159.120273 0.0476318705
C 52.4193246 155.546201 -0.466968185
C 52.4414939 156.978779 -0.229314529
C 53.6772855 157.698691 -0.186924055
C 53.6376946 159.159906 -0.0687676825
C 54.9074106 155.550329 -0.546354056
C 54.934373 156.98417 -0.404614706
C 56.1309993 157.736915 -0.355598007
C 56.1491579 159.157235 -0.232121564
C 57.40704 155.55974 -0.697363516
C 57.3774832 157.02278 -0.512567001
C 58.6513002 157.739141 -0.540086665
C 58.6383116 159.199777 -0.415506788
C 59.8971266 155.582757 -0.724519922
C 59.9176175 157.01706 -0.575911878
C 61.1949335 157.755865 -0.424053617
C 61.165443 159.162244 -0.34546251
C 62.3927958 155.513671 -0.666820383
C 62.4205354 156.980893 -0.525837785
C 63.6786964 157.633331 -0.530964721
C 63.6709086 159.061684 -0.50152897
C 64.942359 155.520489 -0.562467052
C 64.9292531 156.928008 -0.521526642
C 66.133712 157.674947 -0.559476829
C 66.1372536 159.144434 -0.459149117
C 67.4586663 155.572146 -0.649248649
C 67.4017459 157.037013 -0.558759461
C 68.6335989 157.767653 -0.488601332
C 68.6236369 159.245809 -0.515001756
C 69.9592978 155.589241 -0.622781638
C 69.8998985 157.035921 -0.462799374
C 71.1518245 157.768306 -0.523335086
C 71.1168616 159.246084 -0.555900813
C 72.4036573 155.592245 -0.729775723
C 72.4200457 157.045021 -0.748561326
C 73.6480254 157.705696 -0.784399826
C 73.5999388 159.169767 -0.618227626
C 74.9096461 155.558096 -0.791830353
C 74.8836272 156.982276 -0.758193471
C 76.120104 157.729481 -0.579050809
C 76.0989266 159.105763 -0.468596388
C 77.3709923 155.556273 -0.529006334
C 77.3350444 157.025962 -0.488091185
C 78.6098329 157.722331 -0.28801179
C 78.6612063 159.153052 -0.238040863
C 79.8564001 155.545613 -0.352808147
C 79.8567349 156.970511 -0.262618129
C 81.1000443 157.671283 -0.113666263
C 81.1094507 159.099994 0.0237259971
C 82.3302089 155.485701 -0.128705825
C 82.3198118 156.948258 -0.0485243075
C 83.5571732 157.663646 -0.0029761181
C 83.5550091 159.107778 0.0381761003
C 84.7965162 155.504832 0.0187801566
C 84.8417494 156.929962 0.0538770362
C 86.0660502 157.679674 0.0341618994
C 86.078699 159.118597 0.00852994377
C 87.3130548 155.461066 0.176750669
C 87.3106728 156.918288 0.0688065663
C 88.5343005 157.630941 -0.142804574
C 88.5591988 159.105316 -0.164094971
C 89.7836586 155.464682 0.109412203
C 89.7725162 156.909073 -0.0858907154
C 91.0402693 157.638988 -0.146765427
C 91.0617445 159.072695 -0.286800316
C 92.3053437 155.478681 0.122661533
C 92.2641361 156.915971 0.0472811628
C 93.5367865 157.675777 0.000836526018
C 93.5417337 159.074616 -0.0604544344
C 94.7612715 155.481593 0.163535497
C 94.7714455 156.971863 0.116799301
C 96.012563 157.6866 0.163334788
C 96.0291359 159.118557 0.173300963
C 97.2363798 155.476578 0.173935609
C 97.2356285 156.937832 0.126710925
C 98.5308712 157.682837 0.187717905
C 98.51969 159.085271 0.155188933
C 99.7489801 155.520696 0.325974725
C 99.7659136 156.949921 0.297532439
C 100.97839 157.696259 0.292768029
C 101.00358 159.117641 0.258608826
C 102.258629 155.620342 0.426860355
C 102.250224 157.062523 0.410111077
C 103.536276 157.692648 0.535157663
C 103.508106 159.127981 0.492238622
C 104.739687 155.549341 0.568395489
C 104.761001 156.9955 0.587061155
C 106.008273 157.680579 0.591801555
C 106.035956 159.097875 0.575814274
C 107.220188 155.532594 0.685130178
C 107.233703 156.972489 0.573018339
C 108.526402 157.665549 0.699232528
C 108.539625 159.146487 0.753130987
C 109.718722 155.513327 0.757491435
C 109.750521 156.952359 0.733400957
C 110.947652 157.65907 0.593987236
C 110.982873 159.106452 0.583465918
C 112.221922 155.52444 0.663850052
C 112.200923 156.953488 0.570846273
C 113.458719 157.671299 0.552256676
C 113.474548 159.142868 0.497781166
C 114.731728 155.54781 0.692455516
C 114.695539 156.964306 0.609148918
C 115.950028 157.707011 0.581590156
C 115.934386 159.145295 0.545466681
C 117.200513 155.537221 0.710220831
C 117.202513 156.975818 0.686649947
C 118.463484 157.705016 0.655903032
C 118.424462 159.136335 0.673722152
C 119.6714 155.562416 0.700250164
C 119.718847 156.990286 0.668108452
C 120.946625 157.687511 0.549260331
C 120.921418 159.140334 0.472112939
C 122.199074 155.53995 0.665869209
C 122.212043 156.987697 0.574198361
C 123.458331 157.729799 0.554251379
C 123.40304 159.177746 0.429620094
C 124.682746 155.594379 0.651790618
C 124.710401 157.003999 0.573267465
C 125.939668 157.701198 0.587714111
C 125.895089 159.161465 0.568558182
C 127.177154 155.580407 0.803493971
C 127.169492 157.011309 0.743876685
C 128.376074 157.695943 0.828182289
C 128.407554 159.131056 0.751505493
C 129.68201 155.584304 0.916889782
C 129.664949 157.035301 0.852216153
C 130.934703 157.734858 0.892660103
C 130.907861 159.183087 0.802956617
C 132.195378 155.547994 0.782023821
C 132.190182 157.01569 0.851130935
C 133.450819 157.731287 0.789366548
C 133.463435 159.156499 0.732687467
C 134.694009 155.58572 0.655901446
C 134.7048 156.994756 0.691711966
C 135.966877 157.732694 0.622543706
C 135.948639 159.132092 0.679055921
C 137.138736 155.560928 0.564798238
C 137.195889 157.0365 0.555423469
C 138.465689 157.751329 0.542744311
C 138.455347 159.162222 0.406904197
C 139.712181 155.553799 0.520569588
C 139.70403 156.978554 0.49319815
C 140.970309 157.727741 0.430654841
C 140.960437 159.14101 0.265424421
C 142.158977 155.519595 0.419150355
C 142.199641 156.990205 0.452263925
C 143.435658 157.712082 0.333510989
C 143.438762 159.100518 0.28098411
C 144.664494 155.508926 0.361689262
C 144.689465 156.91922 0.32251664
C 145.92339 157.669969 0.182098793
C 145.867648 159.1321 0.151644681
C 147.209805 155.507512 0.186238037
C 147.184092 156.944138 0.0799963474
C 148.42129 157.669078 0.0173025256
C 148.406918 159.109018 -0.0377311239
C 149.675066 155.524681 -0.0501388161
C 149.659189 156.965797 -0.0486083255
C 150.894578 157.684897 -0.235750351
C 150.8837 159.157913 -0.203070021
C 152.181987 155.49011 -0.176149857
C 152.170851 156.95948 -0.218324677
C 153.360232 157.678713 -0.198932171
C 153.391896 159.139404 -0.266501939
C 154.682216 155.479661 -0.284151725
C 154.657156 156.955315 -0.197284727
C 155.882046 157.686267 -0.279606786
C 155.900863 159.125601 -0.290748264
C 157.14595 155.484366 -0.336404012
C 157.130925 156.979289 -0.397694237
C 158.393646 157.686987 -0.484106969
C 158.383909 159.15456 -0.473959794
C 159.65456 155.530609 -0.3574283
C 159.6287 156.923174 -0.372236688
C 160.881726 157.669687 -0.32407631
C 160.87484 159.088928 -0.286405263
C 162.180869 155.470972 -0.355532825
C 162.146696 156.920708 -0.253952287
C 163.362874 157.639569 -0.0850720301
C 163.365757 159.091186 -0.0907494606
C 164.646112 155.519298 -0.166375506
C 164.60505 156.955191 -0.144522259
C 165.862918 157.648005 -0.14685463
C 165.867911 159.08382 -0.107385424
C 167.123963 155.457404 -0.0429396898
C 167.100671 156.898836 -0.0755684908
C 168.367397 157.634634 -0.091640961
C 168.320926 159.101022 -0.0451557025
C 169.601788 155.537725 -0.0500812488
C 169.644419 156.976944 -0.0665376293
C 170.890767 157.703323 -0.0780663943
C 170.809591 159.136207 0.0765236593
C 172.186378 155.527405 0.00825900281
C 172.192543 156.962497 0.0210808808
C 173.374178 157.709612 0.036415935
C 173.309907 159.15959 0.153301225
C 174.653056 155.511698 -0.020479314
C 174.651145 156.97998 0.0323065109
C 175.868194 157.679866 0.0686966312
C 175.860235 159.135412 0.0804643597
C 177.15596 155.57274 0.101018915
C 177.10356 156.987405 0.183981667
C 178.35975 157.692682 0.162055831
C 178.381396 159.125925 0.106101281
C 179.651753 155.550522 -0.140765513
C 179.620667 156.975203 0.00531562851
C 180.849652 157.69831 0.0639078236
C 180.838955 159.110745 0.135159018
C 182.107335 155.519549 -0.188571735
C 182.101482 156.980483 -0.111179974
C 183.365317 157.714086 -0.137859561
C 183.352305 159.133619 -0.0132259234
C 184.586249 155.557343 -0.153800055
C 184.637832 156.9983 -0.111619521
C 185.853267 157.701203 -0.0939572014
C 185.847224 159.13502 -0.08013514
C 187.125639 155.501506 -0.282390867
C 187.085564 157.002548 -0.172428254
C 188.351231 157.724364 -0.19873961
C 188.388793 159.138511 -0.305097606
C 189.585665 155.509949 -0.197574814
C 189.592654 156.955806 -0.216392286
C 190.787886 157.660367 -0.258255013
C 190.824796 159.139277 -0.300006578
C 192.118043 155.516173 -0.259941184
C 192.056716 156.937386 -0.215005908
C 193.310616 157.683425 -0.10925397
C 193.309979 159.128692 -0.113023475
C 194.603528 155.532683 -0.278662501
C 194.578716 156.951468 -0.261883424
C 195.818576 157.690373 -0.23593556
C 195.78384 159.07903 -0.155992785
C 197.078576 155.540902 -0.420946916
C 197.075185 157.030675 -0.27414631
C 198.375175 157.644489 -0.0731080739
C 198.376956 159.119596 0.0877226719
C 199.587637 155.524103 -0.236356702
C 199.613085 156.941974 -0.113081771
C 200.833615 157.611068 -0.0288605907
C 200.82412 159.054332 0.0893080192
C 202.07658 155.472376 -0.125345323
C 202.071014 156.910002 -0.0937753404
C 203.298071 157.657049 -0.00441886254
C 203.335066 159.056415 0.0661673623
C 204.552546 155.479224 0.0657142908
C 204.514279 156.918158 0.165168754
C 205.823685 157.647449 0.282385498
C 205.860311 159.077725 0.177927898
C 207.077007 155.508128 0.255699086
C 207.063574 156.958964 0.387327131
C 208.2952 157.64975 0.35558186
C 208.290421 159.074036 0.232063744
C 209.562095 155.490544 0.388996287
C 209.561317 156.948529 0.368096464
C 210.779891 157.654398 0.3377822
C 210.803627 159.126094 0.301481435
C 212.034777 155.468589 0.40723277
C 212.020621 156.915204 0.313051317
C 213.274428 157.615995 0.15270817
C 213.252716 159.080612 0.12632873
C 214.554875 155.495886 0.243268536
C 214.525976 156.934496 0.2117591
C 215.75957 157.602633 0.203969008
C 215.759633 159.075872 0.193649514
C 217.034941 155.494748 0.252109
C 217.034411 156.931615 0.168130513
C 218.292169 157.64975 0.202563013
C 218.27305 159.070842 0.324071352
C 219.549931 155.479203 0.247557969
C 219.55884 156.965443 0.329493554
C 220.810496 157.711506 0.404343958
C 220.804998 159.119444 0.448299658
C 222.028747 155.498594 0.311776547
C 222.000056 156.956803 0.313260732
C 223.267649 157.720598 0.320771599
C 223.279495 159.131499 0.403090317
C 224.531226 155.563421 0.193138718
C 224.517915 156.990027 0.3271928
C 225.806745 157.695421 0.435605137
C 225.785175 159.132663 0.514459961
C 227.023979 155.496403 0.382063993
C 227.023525 156.919126 0.439333994
C 228.244094 157.675883 0.615523006
C 228.258062 159.097814 0.673729649
C 229.493945 155.479834 0.499780584
C 229.4956 156.946277 0.605084365
C 230.691343 157.582618 0.687324365
C 230.743376 159.02103 0.807665609
C 231.983448 155.421646 0.487375157
C 231.976785 156.904632 0.619044479
C 233.232355 157.636291 0.642911094
C 233.200125 159.070775 0.775810174
C 234.50715 155.443254 0.425413856
C 234.490974 156.861504 0.540542406
C 235.747236 157.639508 0.507833361
C 235.749514 159.068951 0.672508094
C 236.970743 155.442837 0.432244309
C 236.977112 156.925216 0.410102539
C 238.221276 157.639212 0.472369393
C 238.212698 159.117727 0.548464269
C 239.479478 155.456125 0.454830849
C 239.46121 156.907297 0.524724323
C 240.760167 157.679864 0.542642329
C 240.743728 159.1021 0.589354933
C 242.008659 155.463098 0.384671642
C 241.97298 156.936288 0.496077547
C 243.221337 157.664523 0.56172692
C 243.222291 159.081249 0.607900845
C 244.510375 155.479565 0.53205034
C 244.445371 156.96656 0.594593798
C 245.693837 157.666146 0.596345663
C 245.763437 159.11686 0.616700107
C 246.955151 155.514617 0.536362477
C 246.904822 156.94855 0.547737557
C 248.213644 157.601703 0.592558425
C 248.230905 159.074737 0.622648729
C 0.0512259529 159.816175 0.641795683
C 0.00921385864 161.242035 0.714854542
C 1.24437006 162.020188 0.735412521
C 1.26376087 163.425981 0.914333297
C 2.55756352 159.779784 0.613935147
C 2.51868507 161.225477 0.658918862
C 3.74251887 161.957151 0.826208331
C 3.75300711 163.382203 0.981428677
C 5.02860073 159.782661 0.733822431
C 5.02393204 161.246705 0.84550902
C 6.27955102 161.971742 0.936168752
C 6.27687899 163.411074 1.01111343
C 7.51285792 159.793207 0.808115148
C 7.54125685 161.192378 0.947566943
C 8.73934552 161.934063 0.927234886
C 8.77163492 163.351681 0.951567363
C 9.97745621 159.796906 0.654878929
C 9.98433594 161.209768 0.828826755
C 11.2247001 161.940627 0.771339331
C 11.26156 163.377214 1.00317038
C 12.478537 159.78634 0.46459082
C 12.51112 161.238248 0.523967046
C 13.7322071 161.952758 0.547612157
C 13.7401353 163.319418 0.833768789
C 14.9866554 159.834634 0.264489492
C 14.9502649 161.271201 0.343624291
C 16.2084569 161.98222 0.294766926
C 16.2237631 163.416403 0.53466076
C 17.47828 159.795236 0.0824458422
C 17.5116999 161.283753 0.179118481
C 18.7309809 162.000176 0.179150579
C 18.7397084 163.392346 0.362297126
C 19.9735705 159.83605 -0.111228744
C 19.9675833 161.275008 -0.0594648042
C 21.2823116 161.953362 0.000805728863
C 21.2264551 163.390571 0.15486262
C 22.4472238 159.788144 -0.242757735
C 22.4897661 161.239834 -0.241865974
C 23.7069011 162.010515 -0.261370787
C 23.6785996 163.440049 -0.107497629
C 24.9627638 159.827021 -0.371179322
C 24.9491557 161.277589 -0.398874953
C 26.1806752 161.966915 -0.35084547
C 26.1876542 163.42358 -0.139919755
C 27.448403 159.819891 -0.515467019
C 27.4198756 161.277285 -0.449349393
C 28.6863554 162.014097 -0.283107933
C 28.6857292 163.420677 -0.0448804016
C 29.9512044 159.870421 -0.526079499
C 29.9304321 161.27637 -0.377139266
C 31.170695 162.03418 -0.17567622
C 31.1992862 163.478626 0.0620032283
C 32.4056425 159.887048 -0.47765185
C 32.3986102 161.326959 -0.310104904
C 33.6928836 162.017858 -0.234184776
C 33.6850465 163.472724 3.4199244e-05
C 34.9364963 159.883969 -0.548126579
C 34.931018 161.295984 -0.392737252
C 36.1670006 162.113298 -0.199694928
C 36.1437522 163.571423 -0.000224836011
C 37.4428761 159.916723 -0.436229499
C 37.4440896 161.340045 -0.184972934
C 38.7131143 162.029788 0.0815854294
C 38.6498304 163.449055 0.197528217
C 39.952288 159.904291 -0.31254333
C 39.9545503 161.280753 0.0474694697
C 41.1715902 162.015703 0.0649851933
C 41.2078957 163.452268 0.152143921
C 42.4957896 159.898835 -0.360297868
C 42.4385643 161.309207 -0.0788384965
C 43.6540157 162.040027 0.0176886749
C 43.6445643 163.485816 0.14253939
C 44.9658639 159.848676 -0.199583007
C 44.9299891 161.291286 -0.0312619945
C 46.1856599 162.001824 0.0679916432
C 46.1580935 163.44844 0.227654314
C 47.4310247 159.882435 -0.165163247
C 47.4248339 161.287356 0.0387429056
C 48.6717059 162.010718 0.263172292
C 48.6434223 163.449071 0.324180026
C 49.9320617 159.883557 0.0521359124
C 49.9299847 161.272396 0.212490448
C 51.2080022 161.97502 0.181510032
C 51.149787 163.455779 0.266916746
C 52.4495807 159.863431 0.0620717063
C 52.4078789 161.306383 0.226262976
C 53.678264 162.026114 0.196556383
C 53.6942512 163.449642 0.230997369
C 54.9408856 159.895936 0.0131194282
C 54.9314214 161.34273 0.0695485942
C 56.1718234 162.061594 -0.0417370096
C 56.1761979 163.518544 -0.0833798899
C 57.4117375 159.8839 -0.300684399
C 57.4081863 161.374408 -0.17872299
C 58.681716 162.061197 -0.176832977
C 58.6777907 163.516605 -0.162796311
C 59.9226721 159.891639 -0.255515409
C 59.9036688 161.318036 -0.163060264
C 61.1572924 162.036515 -0.154793479
C 61.1597605 163.492805 -0.185177785
C 62.4064309 159.820268 -0.357724188
C 62.3764609 161.258997 -0.198758034
C 63.6038761 162.029539 -0.169422967
C 63.6411307 163.50056 -0.0836988718
C 64.8844805 159.832017 -0.363400968
C 64.8359308 161.305552 -0.241859661
C 66.1060144 162.031686 -0.258250777
C 66.1117079 163.479845 -0.141802846
C 67.3628536 159.913003 -0.437323451
C 67.3647492 161.333935 -0.339906605
C 68.6353666 162.033931 -0.281147585
C 68.6477445 163.489806 -0.162941729
C 69.8735697 159.957654 -0.504443704
C 69.8962648 161.363654 -0.402019469
C 71.1391262 162.059911 -0.453268669
C 71.0955438 163.479073 -0.27047247
C 72.366892 159.933035 -0.585457105
C 72.3921266 161.355196 -0.522674951
C 73.678391 162.042178 -0.446965777
C 73.6367952 163.477058 -0.310887527
C 74.8685 159.860326 -0.551023761
C 74.8908808 161.301023 -0.443258355
C 76.1309001 162.023758 -0.319926117
C 76.1015094 163.443469 -0.27220254
C 77.3714629 159.804982 -0.300977182
C 77.3594121 161.275793 -0.287618259
C 78.6210777 162.013971 -0.189227694
C 78.6410477 163.458115 -0.171025568
C 79.8743227 159.863715 -0.0427655435
C 79.8595222 161.273956 -0.111305683
C 81.1203036 161.992365 0.0570801137
C 81.1415546 163.442163 0.0809109613
C 82.3587904 159.865524 0.052431617
C 82.33309 161.297571 0.135822786
C 83.5859656 162.010504 0.102549543
C 83.5860612 163.482963 -0.0317465974
C 84.8610568 159.850794 -0.00361835861
C 84.8461819 161.317663 0.0186024095
C 86.0832225 162.014495 -0.130266185
C 86.0931152 163.454261 -0.184624971
C 87.3244837 159.807656 -0.10092232
C 87.3072725 161.2482 -0.168019658
C 88.5680673 161.980583 -0.267987303
C 88.5701763 163.418722 -0.254850561
C 89.8152619 159.830896 -0.24387181
C 89.8080443 161.236722 -0.279403828
C 91.0321842 161.967289 -0.254698406
C 91.0617377 163.403887 -0.220788951
C 92.2955041 159.780013 -0.232561346
C 92.2854471 161.241051 -0.14315394
C 93.5247529 161.976525 -0.0153408129
C 93.5276916 163.415666 -0.0708852313
C 94.7910691 159.788771 0.0413574618
C 94.7849508 161.239719 0.0590326174
C 96.0685292 161.944461 0.219927305
C 96.028196 163.378296 0.218580324
C 97.2748476 159.792643 0.239528574
C 97.330066 161.292848 0.338679643
C 98.5630302 162.022378 0.300166206
C 98.5037723 163.451294 0.329882593
C 99.7835681 159.842775 0.149758505
C 99.7568367 161.298335 0.216447247
C 101.010286 162.02383 0.30648798
C 100.998351 163.473313 0.400539388
C 102.224797 159.876866 0.401698254
C 102.247112 161.28109 0.328928725
C 103.48349 162.017312 0.481329816
C 103.496924 163.44513 0.551994821
C 104.779813 159.795129 0.544736552
C 104.745826 161.242201 0.577156557
C 105.958106 161.979477 0.666536947
C 106.01401 163.476056 0.695563268
C 107.275747 159.857159 0.777589904
C 107.236539 161.277314 0.731847193
C 108.477114 162.005147 0.753863711
C 108.451416 163.45352 0.812460382
C 109.773015 159.878123 0.724825304
C 109.742987 161.287569 0.715206892
C 110.973003 162.024649 0.730753749
C 110.991312 163.449644 0.75483072
C 112.216727 159.839574 0.578059179
C 112.225689 161.294989 0.682559983
C 113.449691 162.030017 0.658234245
C 113.464891 163.503669 0.720050841
C 114.7217 159.852501 0.499383398
C 114.680265 161.281974 0.61622581
C 115.958993 162.051 0.551614794
C 115.940794 163.500386 0.498334961
C 117.183468 159.848994 0.607827357
C 117.22347 161.350647 0.573801697
C 118.449272 162.057637 0.602272638
C 118.409648 163.499231 0.453219831
C 119.68736 159.875932 0.547886112
C 119.696775 161.339441 0.537308416
C 120.974238 162.020128 0.469710779
C 120.923707 163.440742 0.303167972
C 122.171496 159.861052 0.457015677
C 122.205909 161.307512 0.442567983
C 123.463631 162.000751 0.398221842
C 123.453552 163.477097 0.244108202
C 124.638568 159.922032 0.475350289
C 124.687546 161.299973 0.51952257
C 125.893219 162.049483 0.578712335
C 125.894214 163.479943 0.411407482
C 127.165124 159.903707 0.653289732
C 127.172168 161.360888 0.670463611
C 128.423697 162.05786 0.734789671
C 128.371761 163.484874 0.630689501
C 129.671685 159.851173 0.828454126
C 129.629155 161.28711 0.74631713
C 130.954383 162.018721 0.705044352
C 130.891504 163.458653 0.554862089
C 132.185755 159.843458 0.734765263
C 132.185409 161.295515 0.713042084
C 133.449451 162.007557 0.673626996
C 133.443333 163.432397 0.590436754
C 134.704666 159.860576 0.724525367
C 134.705002 161.300178 0.642834847
C 135.92404 161.964217 0.548096165
C 135.937114 163.398236 0.435504404
C 137.239215 159.844896 0.512082085
C 137.214969 161.310356 0.496594218
C 138.416974 161.989147 0.382481131
C 138.428792 163.437743 0.303773398
C 139.713136 159.896279 0.280716993
C 139.680374 161.311094 0.247902087
C 140.925725 162.05813 0.235834763
C 140.890973 163.507625 0.217193718
C 142.205812 159.844694 0.176493157
C 142.180284 161.290328 0.208583305
C 143.426527 162.031822 0.241178101
C 143.356249 163.480095 0.132543069
C 144.634902 159.843392 0.279646806
C 144.673241 161.30783 0.234368479
C 145.960428 161.993091 -0.00395883754
C 145.902321 163.427734 -0.0315758485
C 147.186045 159.855944 0.0445775091
C 147.215514 161.278509 -0.0301394486
C 148.446945 161.971636 -0.072741167
C 148.422296 163.421733 -0.0687582799
C 149.652966 159.81256 -0.183623079
C 149.666024 161.255069 -0.180543879
C 150.904503 161.989472 -0.236795958
C 150.899724 163.454448 -0.191327395
C 152.158269 159.841094 -0.127365923
C 152.166937 161.293471 -0.171054394
C 153.42262 162.000798 -0.266729997
C 153.432218 163.461946 -0.199305924
C 154.649876 159.828266 -0.284341875
C 154.65366 161.269749 -0.267058301
C 155.879034 162.065351 -0.197035503
C 155.870681 163.497064 -0.175612744
C 157.156103 159.900354 -0.317541557
C 157.135133 161.32888 -0.2686659
C 158.366946 162.012759 -0.261513173
C 158.389447 163.458366 -0.118682482
C 159.64443 159.812842 -0.454411354
C 159.620013 161.292519 -0.307630561
C 160.902047 162.021403 -0.304218475
C 160.879151 163.433154 -0.222619019
C 162.124781 159.86653 -0.176416109
C 162.130419 161.284053 -0.217002105
C 163.373031 161.934788 -0.125443542
C 163.371294 163.396097 -0.102588221
C 164.657138 159.770568 -0.157301279
C 164.612844 161.24359 -0.114750682
C 165.862347 161.990057 -0.0270862169
C 165.884923 163.467956 -0.019550744
C 167.111783 159.823316 -0.065953873
C 167.108966 161.273488 -0.0888965097
C 168.330403 162.008453 -0.0607172449
C 168.352183 163.493033 -0.0648477214
C 169.556709 159.822922 0.00750839946
C 169.533851 161.286806 -0.022785107
C 170.829079 162.002606 -0.13131414
C 170.849311 163.476638 -0.0729236484
C 172.099756 159.847622 0.101012837
C 172.096033 161.295086 0.080904501
C 173.315584 161.985569 0.198517647
C 173.335561 163.427411 0.132081636
C 174.574321 159.840297 0.198483758
C 174.613201 161.254604 0.252424741
C 175.84818 162.021762 0.261345761
C 175.8151 163.434523 0.385784814
C 177.112453 159.865376 0.185334375
C 177.143036 161.267585 0.197678446
C 178.383539 161.989602 0.259196799
C 178.321978 163.425732 0.382949556
C 179.586323 159.891418 0.124258256
C 179.59554 161.303041 0.211896008
C 180.824177 162.024512 0.250176543
C 180.821549 163.460659 0.356889137
C 182.105751 159.836696 0.179496076
C 182.053295 161.265272 0.24143491
C 183.252071 161.988841 0.173955403
C 183.313436 163.439741 0.192436429
C 184.55392 159.877885 0.0434034343
C 184.52059 161.303977 0.0996968743
C 185.814663 162.024744 -0.00545865417
C 185.790032 163.452044 0.0986180481
C 187.134191 159.811297 -0.20182348
C 187.097475 161.260559 -0.121985491
C 188.289973 161.993135 -0.116892755
C 188.319673 163.401192 -0.0197526171
C 189.597586 159.83474 -0.239372793
C 189.562074 161.299676 -0.164271951
C 190.838538 162.021853 -0.307391696
C 190.767083 163.465815 -0.235936348
C 192.076251 159.873973 -0.112789579
C 192.057218 161.295015 -0.229551182
C 193.315313 162.003631 -0.232786297
C 193.276814 163.417938 -0.156648545
C 194.529137 159.879901 -0.137429719
C 194.520256 161.298005 -0.146849065
C 195.795311 161.983776 -0.109243452
C 195.809143 163.414673 -0.0190490109
C 197.083811 159.768553 -0.0497270547
C 197.047632 161.210334 -0.00811256544
C 198.282598 161.935969 0.0362182718
C 198.298028 163.393746 0.0821657045
C 199.602506 159.77216 0.160652542
C 199.565017 161.235262 0.131485652
C 200.833284 161.952503 0.156278186
C 200.839442 163.414908 0.097194827
C 202.112343 159.774059 0.0290179329
C 202.088805 161.229187 0.0640238269
C 203.314654 161.948852 0.199421809
C 203.330473 163.396605 0.166500944
C 204.593504 159.788649 0.124707233
C 204.590824 161.2328 0.180270973
C 205.844052 161.949238 0.248987918
C 205.798763 163.396626 0.248042738
C 207.072245 159.812049 0.135353985
C 207.107575 161.224516 0.122414245
C 208.338737 161.992073 0.277282771
C 208.312873 163.439626 0.305564707
C 209.556844 159.801077 0.196900694
C 209.534251 161.215793 0.378164741
C 210.803568 161.965454 0.455283359
C 210.841263 163.382672 0.330763204
C 212.011469 159.799199 0.261931841
C 212.035186 161.250652 0.366631714
C 213.23677 161.997735 0.275765357
C 213.298901 163.429938 0.261235558
C 214.496523 159.817597 0.163319774
C 214.487297 161.255629 0.183887542
C 215.717609 161.988975 0.321165709
C 215.739716 163.375394 0.261334217
C 216.987126 159.802388 0.308867955
C 216.960602 161.229424 0.442544327
C 218.268991 161.971706 0.442696503
C 218.232412 163.385962 0.449333666
C 219.562218 159.843643 0.359630891
C 219.50394 161.255351 0.361367668
C 220.768222 161.957555 0.442431174
C 220.772735 163.440053 0.430883033
C 222.047286 159.834615 0.470640666
C 221.963937 161.293808 0.465042034
C 223.19766 162.013324 0.514685589
C 223.26641 163.447605 0.598490469
C 224.528466 159.824392 0.50294626
C 224.510474 161.322917 0.569965983
C 225.759807 161.994021 0.808130617
C 225.788181 163.454047 0.841979065
C 227.000359 159.849636 0.703706872
C 226.979527 161.244129 0.851951685
C 228.226108 161.975594 0.956142878
C 228.223396 163.426291 0.999691763
C 229.487682 159.811632 0.840251534
C 229.48685 161.251134 1.06973772
C 230.745225 161.968677 1.01365873
C 230.696706 163.399541 1.08199238
C 231.957083 159.793758 0.879726621
C 232.004933 161.237091 0.974537457
C 233.240944 161.959443 1.0606021
C 233.24435 163.403111 1.13712077
C 234.48997 159.756465 0.834679394
C 234.446976 161.183588 0.95475101
C 235.691311 161.925143 0.928717749
C 235.669024 163.344018 0.919472293
C 237.00887 159.802411 0.713028258
C 236.97472 161.25667 0.793612674
C 238.22267 161.953689 0.657925371
C 238.206782 163.383803 0.682026943
C 239.447261 159.824036 0.493399036
C 239.492158 161.274982 0.555675741
C 240.763087 161.951248 0.623309678
C 240.708015 163.438051 0.641485447
C 241.995531 159.783635 0.639342703
C 241.983401 161.222858 0.71909447
C 243.229393 161.928486 0.744069092
C 243.223745 163.389424 0.761095669
C 244.461395 159.830388 0.626363444
C 244.47936 161.232713 0.642212713
C 245.747001 161.961297 0.657813702
C 245.796113 163.434256 0.678649747
C 246.988355 159.798969 0.663722871
C 246.984078 161.272311 0.694126399
C 248.217999 161.990415 0.763895855
C 248.198799 163.407982 0.810178707
C 0.0017906364 164.150366 0.926480662
C 0.0368155201 165.559257 0.926677419
C 1.28420048 166.243201 1.03165604
C 1.26867598 167.696547 0.99620327
C 2.55700443 164.134394 0.971670742
C 2.51497585 165.561694 1.08057853
C 3.80534067 166.288204 1.05764131
C 3.79575801 167.751504 1.02678056
C 5.0199918 164.124256 1.06874097
C 5.00093624 165.540077 1.11210874
C 6.2672413 166.284258 1.13442752
C 6.25638416 167.713472 1.0198733
C 7.52806433 164.096594 1.06085479
C 7.54526309 165.516945 1.09953968
C 8.78173658 166.265655 1.02969162
C 8.79114911 167.711299 0.965539335
C 9.99357426 164.063083 0.991926023
C 10.0112398 165.514103 1.07982871
C 11.2670992 166.230119 1.04219338
C 11.2599851 167.665488 0.99354642
C 12.5110793 164.040543 1.04105235
C 12.5225297 165.51481 1.01636417
C 13.71627 166.268553 0.916256511
C 13.7510988 167.763569 0.918985271
C 14.9519452 164.109027 0.732378026
C 14.9338453 165.561085 0.832233963
C 16.1793714 166.291765 0.765043598
C 16.2490468 167.704856 0.799278573
C 17.5112502 164.107333 0.54263811
C 17.4669056 165.59271 0.625640229
C 18.7213175 166.291255 0.558170984
C 18.8291235 167.735511 0.629864193
C 19.9873658 164.176812 0.276115106
C 20.0197833 165.566866 0.429132785
C 21.2368146 166.259119 0.424619474
C 21.2378177 167.694374 0.571253029
C 22.4305418 164.164806 0.143971852
C 22.4626384 165.57001 0.341380921
C 23.7227537 166.287464 0.495925289
C 23.7500158 167.729088 0.676532021
C 24.9574943 164.121782 0.0582942754
C 24.9687875 165.558355 0.347949332
C 26.2042775 166.283671 0.497802756
C 26.2689668 167.752816 0.687657513
C 27.4292464 164.101358 0.0966026832
C 27.4709497 165.516417 0.375502936
C 28.7135198 166.247641 0.413699329
C 28.7549645 167.713305 0.582887366
C 29.9351105 164.160795 0.109386183
C 29.9992116 165.609635 0.28294072
C 31.2114245 166.31727 0.355624914
C 31.2061608 167.71601 0.531186209
C 32.4131401 164.188873 0.146522676
C 32.4857632 165.609702 0.364986136
C 33.7405737 166.319261 0.462808103
C 33.6948444 167.725213 0.600024004
C 34.8814491 164.199749 0.0787683272
C 34.9520988 165.613465 0.353516502
C 36.1403532 166.364858 0.491082956
C 36.1311939 167.764019 0.697776078
C 37.3651273 164.20733 0.262616068
C 37.3847533 165.646681 0.433267063
C 38.6821658 166.337917 0.479662109
C 38.6660366 167.778323 0.725405223
C 39.9262221 164.179085 0.237102009
C 39.9421552 165.61112 0.39559934
C 41.2182029 166.331867 0.47277655
C 41.1258379 167.772762 0.698290843
C 42.4310217 164.239799 0.262063436
C 42.4216802 165.686082 0.440909852
C 43.6625909 166.379993 0.493339136
C 43.6421675 167.751201 0.698881432
C 44.9056386 164.165735 0.299886404
C 44.9521056 165.602174 0.398341338
C 46.1987152 166.335903 0.354048782
C 46.1179378 167.785091 0.514754143
C 47.4057251 164.165046 0.320787623
C 47.4294305 165.626748 0.32827824
C 48.6487679 166.317883 0.433254869
C 48.6453472 167.725267 0.581814642
C 49.8793761 164.173321 0.31102206
C 49.879952 165.623894 0.345934537
C 51.1728158 166.315002 0.414403331
C 51.1384398 167.733969 0.625823318
C 52.4468617 164.153363 0.393924327
C 52.3949791 165.577247 0.435297114
C 53.6648637 166.328274 0.409460263
C 53.6467002 167.787953 0.497481126
C 54.9309314 164.144393 0.0741329756
C 54.9033462 165.623277 0.238607739
C 56.1118514 166.382211 0.141704812
C 56.1294911 167.816826 0.250104066
C 57.4220931 164.227664 -0.133758768
C 57.3871039 165.705768 0.00577434501
C 58.6554559 166.386385 0.0796236317
C 58.6479904 167.726311 0.252421392
C 59.9140258 164.225326 -0.127799414
C 59.9025687 165.645612 0.00129105103
C 61.1716897 166.34256 0.122855179
C 61.1264209 167.813252 0.281668931
C 62.4042277 164.205798 -0.0648004778
C 62.4026009 165.637753 0.0530871
C 63.6078595 166.412366 0.192549503
C 63.5972735 167.829273 0.274223167
C 64.8575362 164.226777 -0.048002043
C 64.8371177 165.689448 0.0355855455
C 66.1245587 166.394174 -0.0464539044
C 66.1139116 167.820497 0.00675249951
C 67.4205109 164.176757 -0.146896439
C 67.3806407 165.652932 -0.103270594
C 68.6066551 166.385578 -0.10667879
C 68.6259462 167.81942 -0.0322437439
C 69.8534485 164.199457 -0.206831354
C 69.8323569 165.645001 -0.153224341
C 71.0913662 166.349887 -0.135805454
C 71.0979443 167.792644 -0.0489044636
C 72.3475161 164.170348 -0.233476481
C 72.3433636 165.578651 -0.163247625
C 73.5719956 166.297315 -0.104818012
C 73.6107406 167.7266 0.00827166777
C 74.8858037 164.234278 -0.232323548
C 74.8522905 165.641198 -0.225370627
C 76.1026227 166.362096 -0.202125866
C 76.1024236 167.757845 -0.083693965
C 77.3678687 164.163321 -0.303204096
C 77.3508076 165.617454 -0.239557153
C 78.5544082 166.328962 -0.176927522
C 78.5672266 167.781201 -0.15728567
C 79.8751608 164.174919 0.021674859
C 79.8507162 165.622589 -0.0400454448
C 81.1153432 166.379086 -0.0955711596
C 81.092548 167.829713 -0.0252653391
C 82.3548654 164.215714 0.0320809038
C 82.3397483 165.693357 -0.00231969908
C 83.5756723 166.352591 0.0984313239
C 83.5900297 167.820536 0.151640883
C 84.8281747 164.206247 -0.1044933
C 84.8384302 165.633926 -0.0433237295
C 86.0577441 166.379537 -0.0979659741
C 86.0774942 167.856225 0.0266353372
C 87.3195181 164.175698 -0.187853423
C 87.309871 165.65832 -0.115624247
C 88.5831343 166.321481 -0.180560725
C 88.545169 167.737907 -0.14059809
C 89.7838088 164.164852 -0.257997699
C 89.8425576 165.602906 -0.254297535
C 91.086573 166.313127 -0.21589042
C 91.0709449 167.754313 -0.123620786
C 92.3044352 164.151858 -0.158279398
C 92.3087701 165.59307 -0.174650021
C 93.5445479 166.279412 -0.0475591825
C 93.5868621 167.733011 -0.0209671663
C 94.7586048 164.08345 0.0858075982
C 94.7752971 165.540772 0.18521591
C 96.0342886 166.282385 0.388195304
C 96.0690963 167.719847 0.331664909
C 97.2368941 164.143535 0.306743714
C 97.2915521 165.565214 0.415936795
C 98.4933098 166.326679 0.470517228
C 98.5061 167.750412 0.405648409
C 99.748101 164.221199 0.44522561
C 99.7921909 165.68701 0.517255964
C 101.011779 166.371842 0.538213577
C 101.024068 167.795162 0.398117207
C 102.259098 164.178534 0.424921606
C 102.217854 165.60092 0.451615924
C 103.499006 166.319563 0.454530793
C 103.479378 167.784116 0.501908689
C 104.746769 164.166939 0.65590929
C 104.726427 165.596471 0.589819639
C 105.982024 166.384285 0.819906501
C 105.98983 167.783855 0.70874016
C 107.227345 164.19341 0.835894253
C 107.252702 165.646626 0.909814903
C 108.506088 166.340998 0.787794177
C 108.510238 167.7859 0.614241633
C 109.718968 164.18156 0.759425947
C 109.730876 165.584938 0.769992361
C 110.958117 166.322891 0.69840802
C 110.996403 167.781669 0.619570217
C 112.239454 164.163802 0.821376736
C 112.214526 165.621582 0.688806043
C 113.437387 166.320513 0.498627403
C 113.449114 167.779498 0.534459535
C 114.727164 164.193377 0.474347811
C 114.717781 165.612129 0.399426519
C 115.953358 166.347995 0.30854224
C 115.948572 167.767545 0.269647294
C 117.225329 164.198351 0.4356295
C 117.196417 165.614038 0.414505315
C 118.434678 166.359915 0.399328575
C 118.478834 167.795669 0.292733356
C 119.684973 164.177617 0.337628205
C 119.682166 165.670834 0.395636298
C 120.950733 166.311671 0.407081588
C 120.944097 167.798103 0.398535404
C 122.177406 164.171119 0.223299384
C 122.206842 165.56209 0.31629052
C 123.419584 166.33593 0.353113713
C 123.458096 167.785277 0.357617154
C 124.680099 164.18329 0.228252394
C 124.670284 165.673921 0.296080478
C 125.954052 166.401546 0.296728754
C 125.990334 167.796159 0.30872788
C 127.124025 164.205043 0.431510999
C 127.165547 165.642669 0.361861842
C 128.466652 166.338219 0.423369297
C 128.446404 167.814814 0.467314229
C 129.677488 164.201515 0.535063587
C 129.715092 165.657187 0.519566371
C 130.920301 166.349665 0.52440424
C 130.945409 167.770379 0.479294799
C 132.209966 164.153514 0.488837919
C 132.151248 165.58391 0.554219078
C 133.390505 166.295583 0.586018828
C 133.390158 167.728565 0.595292775
C 134.671475 164.113916 0.558322999
C 134.661486 165.589028 0.613757576
C 135.942672 166.305212 0.583187984
C 135.902381 167.763308 0.744314756
C 137.167421 164.118359 0.366562679
C 137.165045 165.614671 0.474298023
C 138.400689 166.29742 0.54712044
C 138.41276 167.758474 0.539155547
C 139.678652 164.189737 0.267122027
C 139.65078 165.608499 0.419946807
C 140.901662 166.319362 0.387080117
C 140.908654 167.78752 0.373354221
C 142.139904 164.186519 0.120082889
C 142.107556 165.61687 0.197744853
C 143.396361 166.320356 0.135573857
C 143.39651 167.760045 0.200850833
C 144.638735 164.170518 0.0436843813
C 144.618117 165.603482 0.0781431753
C 145.887081 166.327102 0.122158196
C 145.894131 167.736749 0.217999467
C 147.17764 164.166757 0.00984104877
C 147.150038 165.627276 0.146531589
C 148.412247 166.330867 0.12341664
C 148.434109 167.792714 0.173005301
C 149.657488 164.167602 -0.0305738686
C 149.617361 165.644363 0.0469061194
C 150.888785 166.33942 0.0699067554
C 150.924563 167.785206 0.14322489
C 152.173889 164.176231 -0.0833569638
C 152.133124 165.626518 0.0394724302
C 153.364989 166.333291 0.0207684431
C 153.441113 167.835016 0.0675358101
C 154.638581 164.19139 -0.106255569
C 154.584509 165.577431 -0.0242172848
C 155.816212 166.339853 0.00571988092
C 155.854671 167.756729 0.0965904725
C 157.129372 164.205958 -0.0485899869
C 157.094412 165.636639 -0.00539512047
C 158.338904 166.324241 0.0502790925
C 158.37947 167.779458 0.135943741
C 159.612765 164.188986 -0.160065466
C 159.617074 165.58439 -0.0390952279
C 160.879995 166.322038 -0.0645294099
C 160.84697 167.776514 0.0715009368
C 162.127339 164.165717 -0.123991272
C 162.13157 165.568744 0.0171010825
C 163.349274 166.290776 0.120250381
C 163.318859 167.702774 0.166260243
C 164.588211 164.140457 -0.0497274972
C 164.587891 165.560805 0.0031747342
C 165.838661 166.298725 0.0354386164
C 165.86763 167.757948 0.168769227
C 167.115417 164.211815 -0.0519367567
C 167.098244 165.620345 -0.0313602427
C 168.370391 166.327409 0.0156607729
C 168.340485 167.766708 0.123162268
C 169.600633 164.187774 -0.112133493
C 169.600311 165.611414 -0.0722886814
C 170.871269 166.314808 0.0522371529
C 170.850272 167.776524 0.044205525
C 172.105195 164.146501 0.0258068068
C 172.100102 165.585449 0.117247487
C 173.319078 166.327348 0.245439669
C 173.326667 167.773766 0.297592434
C 174.605233 164.148174 0.257602512
C 174.568479 165.590842 0.312590146
C 175.835324 166.276072 0.503935393
C 175.825782 167.715194 0.469590523
C 177.048126 164.135708 0.454565811
C 177.080042 165.549227 0.486596097
C 178.33014 166.273584 0.41679022
C 178.308694 167.730594 0.437043714
C 179.569576 164.171769 0.434974805
C 179.582318 165.591728 0.429468556
C 180.805001 166.338694 0.443241876
C 180.817755 167.770327 0.404852788
C 182.040212 164.160152 0.44087115
C 182.05284 165.629076 0.467304438
C 183.311763 166.303901 0.291975892
C 183.269627 167.761366 0.270370958
C 184.561506 164.138483 0.12627445
C 184.550703 165.543484 0.175426326
C 185.77389 166.299319 0.12527229
C 185.751906 167.775835 0.158877694
C 187.053371 164.149628 0.0261590342
C 187.011207 165.635379 0.105578684
C 188.277135 166.294527 0.149985094
C 188.324565 167.744845 0.204923946
C 189.538322 164.150526 -0.0869012675
C 189.527266 165.58193 0.0951324534
C 190.820503 166.282877 0.0818220925
C 190.789576 167.765293 0.210642592
C 192.03662 164.16606 -0.203857432
C 192.092203 165.601405 0.0181108821
C 193.315065 166.323391 0.10431734
C 193.313848 167.730787 0.20747791
C 194.561672 164.137946 0.0239610671
C 194.579435 165.591987 0.0571999835
C 195.801323 166.310683 0.143244293
C 195.814598 167.734281 0.288575353
C 197.063977 164.135305 -0.00901112472
C 197.081817 165.586444 0.0578598514
C 198.328985 166.301551 0.130684084
C 198.284035 167.743919 0.188732409
C 199.558275 164.127168 0.0885947661
C 199.570758 165.550996 0.176195828
C 200.797714 166.27814 0.180265052
C 200.807898 167.714908 0.0805799867
C 202.04592 164.108906 0.147696943
C 202.060615 165.544743 0.127112906
C 203.294625 166.270944 0.145754737
C 203.289561 167.7187 0.100013098
C 204.592583 164.092247 0.22723142
C 204.551637 165.524311 0.255599284
C 205.797484 166.244439 0.310391932
C 205.80423 167.673214 0.29354901
C 207.066178 164.084743 0.315188024
C 207.012528 165.546331 0.300706848
C 208.280927 166.231778 0.320782615
C 208.302834 167.613681 0.305347232
C 209.576961 164.121665 0.300923396
C 209.573835 165.586027 0.299369182
C 210.833114 166.283424 0.275637282
C 210.873568 167.749374 0.27481631
C 212.020846 164.135615 0.280968633
C 212.032392 165.57685 0.224509963
C 213.241168 166.316427 0.296606192
C 213.297944 167.775727 0.346781868
C 214.551987 164.167897 0.285919123
C 214.517742 165.623003 0.307129323
C 215.74327 166.319529 0.387346006
C 215.80006 167.758662 0.4473568
C 216.971778 164.118015 0.305467342
C 216.978882 165.546415 0.383082917
C 218.23126 166.241929 0.457405303
C 218.245819 167.719305 0.574054286
C 219.497711 164.13825 0.469806396
C 219.451028 165.546849 0.494458536
C 220.750916 166.272236 0.674540078
C 220.754424 167.719071 0.79888974
C 222.021352 164.140766 0.584038432
C 222.00739 165.554763 0.736638234
C 223.239398 166.302902 0.878044802
C 223.260118 167.721691 1.03689982
C 224.507141 164.1834 0.816277182
C 224.496084 165.61193 0.959258488
C 225.702605 166.310442 1.1874419
C 225.734068 167.740236 1.27633549
C 226.987507 164.157216 0.954607949
C 226.980446 165.573685 1.08939421
C 228.240638 166.28435 1.32033305
C 228.215018 167.763414 1.53925114
C 229.474873 164.134256 1.13712818
C 229.455115 165.568719 1.32433652
C 230.759038 166.260636 1.3143104
C 230.784422 167.720182 1.38397965
C 231.980739 164.064984 1.14672621
C 231.991382 165.530073 1.22773426
C 233.248869 166.253861 1.27180385
C 233.18642 167.727133 1.3017472
C 234.477173 164.105565 1.08882883
C 234.50967 165.567148 1.1140586
C 235.740929 166.27902 1.09194172
C 235.72446 167.718055 1.09234605
C 236.933654 164.102508 0.885947037
C 236.963571 165.560933 0.957654401
C 238.192089 166.306127 0.778238839
C 238.205001 167.730715 0.799697855
C 239.443233 164.125101 0.621674085
C 239.458549 165.572882 0.582146283
C 240.661783 166.306732 0.61165474
C 240.679933 167.744844 0.70621211
C 241.958863 164.114162 0.656136369
C 241.918997 165.577314 0.616751611
C 243.180585 166.319163 0.709338223
C 243.166429 167.741018 0.766332713
C 244.492934 164.145369 0.68499114
C 244.430644 165.574024 0.68736985
C 245.720419 166.277217 0.690615444
C 245.677086 167.731024 0.669552088
C 246.975988 164.142273 0.715034865
C 246.952153 165.583542 0.630289132
C 248.208119 166.295417 0.723184644
C 248.189332 167.711854 0.707312751
C 0.0125772174 168.459272 0.802686982
C 0.00617231052 169.891578 0.871236895
C 1.25963906 170.608195 0.975331009
C 1.26907992 172.037808 0.973563597
C 2.53014867 168.455897 1.07249014
C 2.48523486 169.878895 1.02324516
C 3.71309106 170.629196 1.05382745
C 3.74962624 172.058036 1.18935957
C 5.01708773 168.46185 1.08058408
C 5.00237431 169.908533 1.15448118
C 6.26087697 170.664799 1.13912341
C 6.2224849 172.109886 1.15729924
C 7.54714319 168.47093 0.985278111
C 7.45034049 169.884501 1.06578922
C 8.70817159 170.598306 1.00559656
C 8.69015207 172.048604 1.07531507
C 10.0213835 168.396867 0.915050697
C 9.97222157 169.884866 0.908935561
C 11.2381878 170.586835 0.984437219
C 11.2136951 172.024039 1.0034235
C 12.4628208 168.463116 0.961271861
C 12.4794202 169.910181 0.942435245
C 13.7516277 170.59396 0.897603913
C 13.7125576 172.074006 0.945408983
C 15.0301615 168.452809 0.761025605
C 15.0093932 169.844776 0.832674427
C 16.2570111 170.594388 0.772329786
C 16.270374 172.01989 0.855096194
C 17.5094862 168.420674 0.740116425
C 17.4977692 169.839289 0.846217458
C 18.7341272 170.59069 0.881697442
C 18.7499902 172.039623 1.06547924
C 20.0579385 168.460676 0.623891673
C 19.9740574 169.915058 0.789290138
C 21.2985811 170.631462 1.03708473
C 21.2831998 172.056512 1.16932083
C 22.5342756 168.401149 0.720347769
C 22.5317003 169.867331 0.928094728
C 23.7729074 170.579857 0.928886875
C 23.7670916 172.030252 0.963248136
C 25.0068194 168.432619 0.786520387
C 25.050066 169.87089 0.914647916
C 26.2436198 170.596824 0.885319781
C 26.2212762 172.003979 0.94064664
C 27.5132277 168.442237 0.674741065
C 27.5066284 169.856217 0.768952649
C 28.7382613 170.634053 0.6828409
C 28.7011494 172.089934 0.755048741
C 29.9739481 168.462184 0.634140842
C 29.9746519 169.884275 0.67168805
C 31.180338 170.641659 0.735005905
C 31.2217309 172.100806 0.882958441
C 32.4168682 168.453571 0.572368818
C 32.440097 169.917985 0.700859726
C 33.6443157 170.666251 0.872074085
C 33.6836804 172.095046 0.924771174
C 34.8957471 168.476821 0.769396017
C 34.8644192 169.954036 0.929377157
C 36.1559239 170.607772 0.998627189
C 36.2715255 172.071676 1.11766216
C 37.4083856 168.469406 0.756711216
C 37.4237411 169.886641 0.922906525
C 38.6912416 170.581747 1.0593364
C 38.684669 172.044567 1.22109546
C 39.9028036 168.472646 0.815821648
C 39.9487434 169.886292 1.06426289
C 41.1965656 170.595504 1.08030923
C 41.1693756 172.024267 1.18612436
C 42.3781022 168.471866 0.813738473
C 42.4228476 169.912432 0.977900772
C 43.6602966 170.604989 1.07538231
C 43.6653613 172.026944 1.16954069
C 44.8906751 168.45714 0.708331728
C 44.914832 169.897326 1.06333358
C 46.1512717 170.622497 1.06561968
C 46.1911002 172.084756 1.26662015
C 47.3882918 168.474341 0.652758668
C 47.4333137 169.933373 0.879521606
C 48.6813155 170.673097 0.992569386
C 48.677422 172.07409 1.23526026
C 49.9044527 168.45925 0.684224961
C 49.9371473 169.897269 0.834943781
C 51.158908 170.645806 0.880355172
C 51.152588 172.11489 1.1040836
C 52.3999271 168.473468 0.662243636
C 52.4267982 169.932535 0.763972336
C 53.6386004 170.621421 0.795573142
C 53.6703191 172.049352 0.853658614
C 54.8778122 168.518755 0.466266077
C 54.879151 169.915985 0.612207073
C 56.1152333 170.633701 0.573549669
C 56.1106239 172.051392 0.650179203
C 57.4014324 168.515907 0.266835292
C 57.3661228 169.939576 0.51137541
C 58.6335493 170.603997 0.546924736
C 58.7036662 172.023037 0.621078447
C 59.8784437 168.48178 0.321988387
C 59.9055365 169.936571 0.437808273
C 61.1225819 170.650876 0.494784004
C 61.1322371 172.083815 0.454367019
C 62.3366935 168.528223 0.397361386
C 62.3979746 169.933512 0.456213632
C 63.6117844 170.671886 0.54438868
C 63.6119186 172.061371 0.659931268
C 64.8492213 168.558896 0.247567594
C 64.8427298 170.010294 0.452875818
C 66.1180489 170.669124 0.44559009
C 66.1367115 172.075571 0.59670583
C 67.3446639 168.51444 0.0956569488
C 67.3669209 169.928796 0.25716799
C 68.6425603 170.650522 0.281695851
C 68.6212081 172.095737 0.373775154
C 69.8861675 168.495094 0.0347138626
C 69.8869887 169.944218 0.205873859
C 71.1046344 170.652507 0.282559145
C 71.1215605 172.069954 0.409777496
C 72.3494047 168.470723 0.121361098
C 72.3804604 169.913385 0.243361609
C 73.565101 170.660644 0.318948049
C 73.5791622 172.090475 0.386760571
C 74.8316498 168.493985 0.013063104
C 74.8447317 169.957896 0.149351814
C 76.088145 170.614724 0.181516907
C 76.0788644 172.088817 0.334880033
C 77.3224376 168.502932 -0.104065737
C 77.337343 169.931633 0.102007969
C 78.539347 170.653066 0.183119037
C 78.5346776 172.113644 0.369134167
C 79.7667374 168.539835 -0.0746876645
C 79.8027809 169.93282 0.140473344
C 81.0414015 170.726227 0.231922506
C 81.0565828 172.152257 0.378518156
C 82.3203953 168.53686 0.0947389261
C 82.2987236 169.985848 0.16018509
C 83.5890818 170.691056 0.216300781
C 83.5909433 172.105354 0.306491507
C 84.8324186 168.519468 0.182176516
C 84.8353124 169.960802 0.190919397
C 86.0858177 170.678543 0.096126052
C 86.0599579 172.0855 0.135255693
C 87.3356026 168.483915 -0.029531699
C 87.2780438 169.928722 -0.0203779876
C 88.5599505 170.632962 -0.155540757
C 88.5487508 172.09207 -0.194618157
C 89.8068606 168.468586 -0.170692505
C 89.8185661 169.902103 -0.22584939
C 91.0300846 170.608559 -0.167433132
C 91.0009405 172.049275 -0.12056194
C 92.3126627 168.499474 -0.0984922073
C 92.3029618 169.950717 -0.0548490796
C 93.5333525 170.650541 0.0152772044
C 93.5461292 172.071673 0.0569119404
C 94.837778 168.451712 0.131599902
C 94.7975084 169.91071 0.0951370167
C 96.0702303 170.649449 0.290280477
C 96.0303303 172.111555 0.299385756
C 97.2677408 168.44036 0.473721254
C 97.280758 169.892189 0.402079747
C 98.5184266 170.641158 0.375623833
C 98.5507265 172.070608 0.265039423
C 99.7551035 168.478689 0.389075931
C 99.7766372 169.93312 0.342935208
C 101.053015 170.638749 0.29793407
C 101.051297 172.056425 0.230784475
C 102.236987 168.532201 0.390197214
C 102.285762 169.926231 0.345659078
C 103.555782 170.640313 0.288493851
C 103.539944 172.082342 0.181085068
C 104.750848 168.495663 0.527326742
C 104.785162 169.940831 0.34559952
C 106.050792 170.652654 0.309019124
C 106.028982 172.075286 0.186194021
C 107.297328 168.511754 0.602341435
C 107.261533 169.932458 0.447118498
C 108.523916 170.678247 0.388089241
C 108.506833 172.108936 0.344219395
C 109.780833 168.545932 0.503180319
C 109.756868 169.962887 0.440172838
C 110.966222 170.676189 0.283999737
C 110.99385 172.085114 0.157992678
C 112.219243 168.478695 0.619263666
C 112.261141 169.939732 0.402270623
C 113.469222 170.700409 0.302101088
C 113.479266 172.108983 0.148544374
C 114.692782 168.477224 0.373193042
C 114.684278 169.906826 0.329497913
C 115.95319 170.680099 0.391147246
C 115.989437 172.095658 0.244748409
C 117.21264 168.503775 0.280112168
C 117.21947 169.955317 0.385651342
C 118.464217 170.691666 0.338721947
C 118.481898 172.129758 0.269446484
C 119.739156 168.505506 0.349998684
C 119.689785 169.947998 0.322201266
C 120.954897 170.691483 0.276195308
C 120.983444 172.112495 0.287201577
C 122.202059 168.485269 0.353966465
C 122.199666 169.928035 0.261726991
C 123.439056 170.627603 0.162587089
C 123.445661 172.140794 0.224542445
C 124.721435 168.531498 0.359999759
C 124.695251 169.953122 0.245721414
C 125.986907 170.654158 0.250286979
C 125.958274 172.0749 0.243442883
C 127.228747 168.486245 0.375782543
C 127.214737 169.908178 0.343809867
C 128.460808 170.617191 0.354581008
C 128.430706 172.079021 0.352606196
C 129.730197 168.515627 0.413509303
C 129.683779 169.985008 0.439500911
C 130.938477 170.655445 0.578664022
C 130.927055 172.112834 0.58753007
C 132.174034 168.484727 0.610344533
C 132.177743 169.934929 0.62932609
C 133.430159 170.619215 0.656174105
C 133.483239 172.04624 0.614433303
C 134.633002 168.422111 0.678315342
C 134.647873 169.862317 0.698897963
C 135.932457 170.601647 0.653962282
C 135.932079 172.067429 0.583680947
C 137.14727 168.482446 0.628239118
C 137.171184 169.880266 0.670224031
C 138.368947 170.645269 0.650144549
C 138.414371 172.060404 0.548152721
C 139.667773 168.478637 0.413810121
C 139.627738 169.912129 0.500444998
C 140.920707 170.602363 0.455691659
C 140.904136 172.059682 0.567182231
C 142.194848 168.493415 0.308603526
C 142.159591 169.954432 0.344909914
C 143.37998 170.687804 0.324811619
C 143.412028 172.122193 0.428785322
C 144.66886 168.482228 0.230897374
C 144.607599 169.915656 0.297641441
C 145.924579 170.643543 0.231980547
C 145.916845 172.112739 0.288394427
C 147.16078 168.471096 0.249510261
C 147.188927 169.944107 0.269094255
C 148.419097 170.675759 0.261241392
C 148.422628 172.10287 0.296591425
C 149.710118 168.544163 0.184218824
C 149.668609 169.936035 0.209546383
C 150.924963 170.686428 0.263617674
C 150.898621 172.109134 0.283772463
C 152.135641 168.50566 0.119721782
C 152.171311 169.940435 0.197395018
C 153.407645 170.65641 0.175691636
C 153.384625 172.112312 0.191148923
C 154.632866 168.529838 0.111389378
C 154.625682 169.932338 0.128903838
C 155.868518 170.613189 0.181164837
C 155.85671 172.0731 0.211062195
C 157.087318 168.470911 0.188620515
C 157.093852 169.903655 0.239766515
C 158.354841 170.604481 0.325028074
C 158.374145 172.051448 0.290176623
C 159.63624 168.476138 0.204626299
C 159.622866 169.968873 0.265876975
C 160.832279 170.63768 0.31587784
C 160.878145 172.066629 0.435694061
C 162.108403 168.503054 0.166048899
C 162.095947 169.905029 0.274284966
C 163.342355 170.649139 0.355081529
C 163.358039 172.103323 0.48445358
C 164.538962 168.433821 0.272775495
C 164.561478 169.86951 0.372157631
C 165.857544 170.589952 0.407085986
C 165.843473 172.091107 0.545537317
C 167.065748 168.472613 0.243078153
C 167.099276 169.932278 0.333219181
C 168.335833 170.663717 0.201504479
C 168.356079 172.092255 0.304182463
C 169.586175 168.482571 0.0388652443
C 169.558863 169.925722 0.104854847
C 170.857045 170.642556 0.154058013
C 170.850828 172.12087 0.390443762
C 172.123557 168.465519 0.143330389
C 172.066123 169.90043 0.103463568
C 173.313728 170.616724 0.328559078
C 173.315905 172.01644 0.438185171
C 174.58017 168.435971 0.398330086
C 174.586385 169.883912 0.34658573
C 175.818429 170.646128 0.340257342
C 175.801978 172.053843 0.43975727
C 177.085365 168.48122 0.395164958
C 177.065867 169.890041 0.384354634
C 178.295517 170.617597 0.403678663
C 178.280952 172.06896 0.395275194
C 179.546631 168.466011 0.434884053
C 179.551666 169.909119 0.343464793
C 180.833279 170.647443 0.230029417
C 180.788754 172.083966 0.25577103
C 182.049617 168.464383 0.315852436
C 182.039487 169.875294 0.238352437
C 183.256139 170.631173 0.166297097
C 183.309739 172.032187 0.187593187
C 184.515331 168.534672 0.205607563
C 184.50309 169.926568 0.165621538
C 185.773482 170.621746 0.210630353
C 185.801642 172.068999 0.253854023
C 187.029835 168.473041 0.179764852
C 187.002877 169.873331 0.215961329
C 188.269466 170.62607 0.273188391
C 188.304322 172.065127 0.42194245
C 189.52962 168.454175 0.293362675
C 189.524145 169.895863 0.334304971
C 190.84352 170.576454 0.407784512
C 190.776018 172.007662 0.6030717
C 192.063637 168.449768 0.279964005
C 192.089574 169.86811 0.382129107
C 193.30488 170.609804 0.456176001
C 193.27318 172.027663 0.669606905
C 194.55291 168.465121 0.274702559
C 194.548422 169.869061 0.342791318
C 195.767849 170.567479 0.49623148
C 195.760081 171.99502 0.683984082
C 197.017373 168.441504 0.327412306
C 197.053956 169.872548 0.424949483
C 198.302098 170.620364 0.354822503
C 198.27863 172.002494 0.54162872
C 199.530425 168.396613 0.09681415
C 199.513555 169.860342 0.125519351
C 200.790728 170.567264 0.0971848952
C 200.719717 172.072024 0.312103739
C 202.064973 168.454153 0.0955759484
C 202.047275 169.873208 0.0978049538
C 203.299598 170.588148 0.0896655606
C 203.254943 172.06725 0.154664354
C 204.600953 168.414285 0.207690626
C 204.583736 169.828276 0.189650362
C 205.787895 170.599507 0.176676593
C 205.776063 172.046003 0.230684747
C 207.045556 168.407038 0.280089168
C 207.047902 169.871463 0.289174586
C 208.292152 170.590968 0.338834399
C 208.27019 172.064946 0.388709797
C 209.50721 168.393048 0.259259416
C 209.500629 169.854021 0.243483185
C 210.779514 170.620897 0.216850588
C 210.751852 172.074648 0.302172387
C 212.033714 168.512726 0.385525979
C 212.001972 169.913935 0.370136488
C 213.245265 170.640263 0.539628023
C 213.225554 172.083577 0.578762417
C 214.568665 168.469594 0.421281883
C 214.510288 169.943364 0.461300788
C 215.748048 170.624805 0.548861056
C 215.742944 172.035534 0.710254923
C 217.048913 168.438671 0.539126669
C 217.006547 169.90223 0.586251602
C 218.254455 170.594195 0.806743365
C 218.281681 172.073614 0.986896896
C 219.489627 168.4248 0.781145069
C 219.485525 169.899986 0.868519417
C 220.753105 170.618139 1.03555202
C 220.739424 172.053559 1.17046518
C 222.012233 168.401787 0.987262294
C 222.003532 169.834173 1.05145908
C 223.222064 170.598135 1.27698101
C 223.268915 172.042344 1.34196193
C 224.457746 168.46202 1.22930973
C 224.47201 169.925483 1.32288121
C 225.723739 170.616308 1.36748963
C 225.780996 172.015316 1.39102137
C 226.983419 168.509132 1.42473412
C 226.973142 169.950107 1.4413544
C 228.257824 170.635969 1.50834541
C 228.226621 172.025874 1.49231326
C 229.470747 168.452855 1.52404597
C 229.514892 169.938627 1.48232952
C 230.751433 170.630662 1.36467525
C 230.770316 172.05753 1.36771517
C 231.991275 168.450695 1.37491123
C 232.015996 169.875386 1.35214991
C 233.24154 170.63968 1.32356086
C 233.261469 172.04516 1.26665213
C 234.424438 168.473342 1.16921824
C 234.490934 169.929984 1.26187123
C 235.764556 170.635317 1.23910382
C 235.768126 172.066211 1.16536784
C 236.961866 168.466716 0.950321377
C 236.963466 169.898217 1.04166342
C 238.243366 170.612669 0.887825805
C 238.232756 172.09432 0.878569657
C 239.446713 168.473894 0.789871787
C 239.425922 169.89467 0.87008024
C 240.692869 170.635241 0.879957853
C 240.69508 172.092973 0.804947686
C 241.942978 168.48722 0.751947555
C 241.949237 169.936529 0.901833121
C 243.18035 170.649248 0.805727368
C 243.202901 172.040656 0.719590129
C 244.427897 168.481544 0.699139161
C 244.402467 169.90606 0.739000965
C 245.692114 170.617279 0.757172513
C 245.694952 172.090749 0.680616238
C 246.899908 168.445329 0.714718447
C 246.929135 169.906938 0.782737163
C 248.175472 170.590327 0.856135988
C 248.212819 172.031817 0.852684428
C 0.0293382491 172.845886 0.975160745
C 0.0216883755 174.284056 0.968701714
C 1.26616607 175.013583 1.04617615
C 1.26170794 176.39858 1.1609496
C 2.52145125 172.790735 1.0754654
C 2.49078103 174.252676 1.11761529
C 3.67698677 174.971695 1.27505844
C 3.72823191 176.390326 1.29745324
C 4.9903584 172.808796 1.26869997
C 4.98450774 174.277091 1.28867109
C 6.21851324 174.984819 1.1982691
C 6.1618726 176.441004 1.1940092
C 7.465502 172.781072 1.17920862
C 7.47493293 174.203727 1.15190121
C 8.70643745 174.936369 1.11503695
C 8.6778593 176.362419 1.13124528
C 9.93277167 172.725145 1.09221259
C 9.99047795 174.16494 1.10044226
C 11.1897042 174.896111 1.12929874
C 11.1651736 176.298279 1.14228044
C 12.4630383 172.74302 1.03066423
C 12.4280772 174.17682 1.11213826
C 13.7095919 174.87573 0.990601198
C 13.7058573 176.335519 1.07004975
C 14.9627091 172.755228 0.914063772
C 14.9452504 174.219903 1.06077445
C 16.1885001 174.926005 1.14493786
C 16.2057245 176.354025 1.11680774
C 17.5136342 172.779844 1.02527554
C 17.502834 174.18851 1.19664701
C 18.7088604 174.908032 1.25037849
C 18.7372551 176.334101 1.27517422
C 20.0331635 172.728048 1.22906325
C 19.9858278 174.149774 1.30109923
C 21.2466278 174.858041 1.322456
C 21.2273518 176.356645 1.36894677
C 22.5460504 172.742948 1.18817341
C 22.5348002 174.159479 1.16251359
C 23.7315846 174.895119 1.06844254
C 23.7067221 176.344994 1.28101437
C 24.9929963 172.745958 0.956341816
C 24.9711272 174.20496 0.942906776
C 26.170424 174.925263 1.01473617
C 26.2051182 176.37715 1.07486571
C 27.4603794 172.790945 0.97626534
C 27.4664426 174.238652 1.0819666
C 28.682159 174.975819 1.10533191
C 28.7163299 176.372673 1.18857836
C 29.9575888 172.810906 0.82803664
C 29.9588294 174.266191 0.970732845
C 31.216449 174.989112 1.10764637
C 31.2361364 176.371346 1.25880327
C 32.4619554 172.821402 1.00331456
C 32.4294294 174.237237 1.1270184
C 33.7125966 174.957296 1.2625379
C 33.7014591 176.382792 1.33569736
C 34.9728699 172.801023 1.02024185
C 34.9454973 174.2253 1.2663664
C 36.2507258 174.917591 1.36068293
C 36.2022265 176.35515 1.45120414
C 37.4514878 172.754078 1.32268753
C 37.4619081 174.189866 1.36875561
C 38.7240464 174.869262 1.38850504
C 38.7022396 176.326975 1.46839444
C 39.9334582 172.730642 1.19980935
C 39.9904255 174.129459 1.30805791
C 41.1840297 174.891478 1.35065565
C 41.2148315 176.326692 1.34457776
C 42.4350982 172.73913 1.22913919
C 42.4258022 174.193537 1.31197906
C 43.6814999 174.950386 1.24767828
C 43.6887756 176.353625 1.22154195
C 44.8902845 172.786269 1.17996915
C 44.9487736 174.254194 1.27838651
C 46.2211193 174.92043 1.30277001
C 46.1971473 176.374987 1.26079046
C 47.4261855 172.782833 1.319307
C 47.4624815 174.201707 1.3648111
C 48.6505558 174.968894 1.44768863
C 48.6796334 176.389834 1.36775589
C 49.9074569 172.834043 1.29560096
C 49.9375527 174.291896 1.41893311
C 51.2274488 174.954823 1.33647869
C 51.1895912 176.429714 1.21749363
C 52.4409302 172.841944 1.0149005
C 52.4952029 174.253488 1.16624415
C 53.704655 174.983757 0.991685848
C 53.6808155 176.399676 0.974508067
C 54.8975013 172.823506 0.766801302
C 54.9172244 174.291998 0.822868822
C 56.2031191 174.961903 0.662888212
C 56.1758846 176.399965 0.716207545
C 57.4010684 172.740634 0.642862218
C 57.4035038 174.207127 0.601834496
C 58.6463799 174.906378 0.582172616
C 58.6313905 176.341012 0.68760824
C 59.9019785 172.764538 0.495951251
C 59.9231695 174.216639 0.550130819
C 61.1672206 174.936813 0.553440789
C 61.1157777 176.395242 0.611863955
C 62.3837773 172.78068 0.568019661
C 62.3972112 174.238623 0.637206582
C 63.6888364 174.959025 0.694164982
C 63.6428388 176.399351 0.703977575
C 64.8715034 172.826076 0.627630487
C 64.9097601 174.226172 0.649331187
C 66.1545615 174.977623 0.665175814
C 66.1307681 176.445027 0.683382569
C 67.3722758 172.796118 0.522779178
C 67.4068159 174.230984 0.622533125
C 68.6192411 174.967652 0.647590186
C 68.5910841 176.426815 0.658455475
C 69.8517542 172.83434 0.442357051
C 69.8546435 174.293792 0.532423833
C 71.0812107 175.022821 0.578317463
C 71.1062528 176.423955 0.717965312
C 72.3346481 172.87728 0.422212316
C 72.3400464 174.325525 0.403611658
C 73.5706625 175.036711 0.424238102
C 73.5770428 176.469583 0.71202766
C 74.7879797 172.852918 0.340862004
C 74.7824039 174.264689 0.386587464
C 76.041121 174.994549 0.51569317
C 76.0338325 176.449477 0.671993618
C 77.2902761 172.843702 0.381563631
C 77.3109623 174.274459 0.436621097
C 78.5380188 175.014899 0.514569
C 78.5328608 176.456255 0.630525808
C 79.812422 172.826395 0.432814999
C 79.7958878 174.267963 0.559292527
C 81.0324101 174.965458 0.562773849
C 81.0578676 176.429273 0.534553477
C 82.3492882 172.79547 0.473383338
C 82.3070248 174.249138 0.545867548
C 83.5614524 175.00087 0.42221264
C 83.570862 176.410825 0.42782623
C 84.7886797 172.81239 0.176191538
C 84.817178 174.249221 0.300345319
C 86.0420058 174.965298 0.166002106
C 86.0634833 176.385659 0.220450039
C 87.3097528 172.809827 -0.0702549698
C 87.2667427 174.241558 -0.00429222513
C 88.5487927 174.964799 -0.0013449513
C 88.5393354 176.43538 0.191915016
C 89.7874572 172.784469 -0.138770977
C 89.8187773 174.23702 -0.00838739054
C 91.0178084 174.971693 0.174588333
C 91.0555667 176.405566 0.257301624
C 92.2928312 172.802649 -0.0137251675
C 92.2517316 174.250909 0.0333856528
C 93.4925417 174.978649 0.0556108061
C 93.5127629 176.430437 0.207465406
C 94.7785323 172.821399 0.171450875
C 94.7730936 174.327267 0.103182465
C 96.0449881 174.990747 0.0647978036
C 96.0207426 176.406228 0.11201076
C 97.2922209 172.802276 0.281727198
C 97.3095461 174.230393 0.096995872
C 98.5335572 174.98825 -0.0272953161
C 98.5178897 176.447705 0.0551087305
C 99.7911732 172.782174 0.156179739
C 99.7844191 174.225367 0.0411202421
C 101.028983 174.954674 0.14113125
C 100.956416 176.346518 0.084287618
C 102.288269 172.806266 0.250163742
C 102.28755 174.22438 0.215737223
C 103.532786 174.97046 0.256829049
C 103.456468 176.410899 0.212883301
C 104.811268 172.787052 0.159393851
C 104.796423 174.234497 0.2427678
C 106.0001 175.009066 0.295837976
C 105.974392 176.438806 0.384895715
C 107.264638 172.856616 0.228533307
C 107.223148 174.305625 0.264747004
C 108.463377 175.010485 0.184455272
C 108.46119 176.447878 0.138811546
C 109.766219 172.847262 0.254948014
C 109.717559 174.283539 0.233073572
C 110.939261 175.003243 0.18816933
C 111.031097 176.444323 0.122399619
C 112.271678 172.836756 0.212982915
C 112.226195 174.257052 0.192069609
C 113.462948 174.972864 0.125890791
C 113.495071 176.455608 0.15839844
C 114.76363 172.794572 0.0772014691
C 114.732399 174.276618 -0.00353819159
C 115.963058 175.035925 0.0777630941
C 115.935045 176.479521 0.157262285
C 117.220638 172.845048 0.225029912
C 117.191417 174.291726 0.0976491895
C 118.433676 174.93117 0.11514513
C 118.445681 176.410524 0.136383503
C 119.751303 172.817675 0.22134077
C 119.717526 174.289785 0.253491706
C 120.910255 175.008624 0.198867896
C 120.946409 176.448461 0.208918376
C 122.212072 172.852026 0.295327624
C 122.162997 174.326128 0.295818742
C 123.424579 174.980797 0.34825646
C 123.453821 176.437733 0.385485732
C 124.699098 172.788753 0.271466698
C 124.708276 174.237052 0.32297773
C 125.943731 174.99836 0.444334726
C 125.954126 176.43067 0.486816481
C 127.186665 172.801268 0.364865528
C 127.206892 174.27113 0.350294787
C 128.480748 174.96268 0.37251709
C 128.412862 176.406636 0.51669735
C 129.680537 172.830928 0.507347781
C 129.673428 174.27931 0.407211478
C 130.995021 174.929543 0.534021478
C 130.92792 176.37858 0.539951399
C 132.21327 172.787835 0.569268183
C 132.224115 174.223669 0.523867242
C 133.454602 174.957386 0.504265306
C 133.446415 176.392848 0.528104868
C 134.699793 172.796007 0.555320565
C 134.754709 174.265308 0.515523925
C 135.949313 174.981446 0.520598873
C 135.950651 176.439911 0.51475711
C 137.163334 172.781148 0.515482146
C 137.17181 174.211118 0.536997034
C 138.413526 174.925618 0.575179082
C 138.43023 176.366463 0.683077248
C 139.643175 172.797796 0.571752189
C 139.683854 174.261574 0.593213971
C 140.905183 174.969271 0.583745216
C 140.901337 176.386827 0.671716231
C 142.192927 172.79767 0.563102596
C 142.180487 174.265531 0.565126577
C 143.450479 174.982555 0.41866545
C 143.409097 176.442088 0.452191594
C 144.674681 172.809629 0.342548989
C 144.667736 174.272742 0.366418105
C 145.859864 174.997094 0.344682779
C 145.888624 176.436382 0.29842066
C 147.179207 172.827331 0.324206102
C 147.087798 174.251651 0.335966803
C 148.360965 174.935445 0.371946276
C 148.366676 176.41748 0.372539104
C 149.681489 172.822781 0.297418491
C 149.633733 174.27578 0.27246588
C 150.877449 175.027328 0.196462855
C 150.891793 176.45038 0.282746436
C 152.119877 172.812154 0.22830959
C 152.127656 174.275447 0.163291305
C 153.354093 174.990278 0.113270069
C 153.384083 176.417948 0.406859508
C 154.606857 172.790603 0.202439593
C 154.653831 174.240597 0.21044015
C 155.885241 174.999315 0.402246029
C 155.88617 176.444144 0.518772098
C 157.120322 172.77711 0.255400805
C 157.151922 174.24183 0.355860192
C 158.398941 174.969294 0.425287159
C 158.331495 176.405658 0.470780935
C 159.598209 172.749527 0.388899898
C 159.582651 174.242022 0.420713416
C 160.837873 174.947197 0.519003397
C 160.832972 176.379137 0.600122628
C 162.084907 172.812525 0.56087433
C 162.127207 174.225928 0.567750636
C 163.342221 174.934837 0.615705815
C 163.329252 176.398505 0.549721107
C 164.598462 172.829979 0.663881955
C 164.615773 174.243921 0.664071029
C 165.861258 174.918689 0.653992607
C 165.823646 176.386995 0.637246367
C 167.079905 172.775609 0.507770246
C 167.109997 174.225225 0.591026551
C 168.358583 174.968303 0.510740352
C 168.370236 176.398833 0.531186658
C 169.538966 172.796443 0.388213496
C 169.562954 174.210492 0.462439143
C 170.788787 174.940773 0.473299435
C 170.809174 176.342977 0.462419209
C 172.086993 172.779849 0.519121766
C 172.091298 174.228583 0.567545135
C 173.3237 174.923908 0.509794066
C 173.320173 176.355894 0.476347713
C 174.557784 172.77188 0.528794086
C 174.576183 174.190915 0.50406101
C 175.80543 174.957798 0.443230425
C 175.787899 176.365266 0.437652599
C 177.03459 172.793102 0.455522703
C 177.000576 174.244597 0.424407116
C 178.270182 174.936981 0.452018505
C 178.259677 176.393602 0.552659035
C 179.561553 172.772033 0.351541762
C 179.498037 174.227182 0.389642302
C 180.730894 174.954146 0.405930537
C 180.781186 176.393576 0.444880627
C 182.066488 172.773793 0.283470704
C 182.020068 174.201962 0.403134728
C 183.287778 174.928912 0.369874799
C 183.284971 176.396014 0.432236513
C 184.531485 172.757357 0.179226681
C 184.518716 174.198208 0.389547242
C 185.787635 174.913666 0.43691879
C 185.782945 176.354631 0.48809801
C 187.0517 172.77661 0.397633428
C 187.026704 174.160638 0.544503351
C 188.267576 174.867108 0.648713358
C 188.285367 176.331094 0.596822167
C 189.559559 172.731933 0.649764149
C 189.536725 174.17752 0.651323294
C 190.789438 174.883598 0.726728329
C 190.770654 176.295673 0.822988695
C 192.012174 172.752369 0.663587022
C 192.018641 174.164734 0.703810898
C 193.241902 174.890911 0.792663108
C 193.223921 176.341601 0.906732187
C 194.506412 172.743945 0.814213442
C 194.528933 174.174912 0.773506496
C 195.771489 174.8724 0.773683094
C 195.749854 176.335961 0.801248897
C 197.030169 172.729762 0.673678862
C 197.013064 174.145474 0.765164096
C 198.236887 174.937861 0.782011505
C 198.252049 176.358443 0.743447507
C 199.526015 172.764188 0.520014336
C 199.50356 174.193281 0.651021408
C 200.752669 174.908402 0.457501836
C 200.733713 176.32669 0.479186051
C 201.975004 172.73762 0.209521132
C 201.974701 174.177499 0.27880641
C 203.200378 174.845864 0.328384933
C 203.245384 176.301741 0.465785407
C 204.524668 172.77282 0.198011191
C 204.495734 174.173949 0.286057644
C 205.746851 174.88595 0.323873436
C 205.782825 176.318847 0.384829112
C 207.026616 172.770498 0.390018923
C 206.998245 174.206924 0.428537546
C 208.294914 174.946671 0.439576855
C 208.250591 176.348773 0.403722887
C 209.47612 172.778513 0.278936183
C 209.493538 174.185011 0.315392596
C 210.743776 174.909364 0.377261016
C 210.750458 176.340108 0.383543235
C 211.967265 172.761501 0.464093338
C 211.958021 174.193856 0.496548274
C 213.274967 174.897265 0.571558292
C 213.253726 176.334039 0.621444605
C 214.488374 172.778416 0.617418936
C 214.489294 174.199316 0.630125428
C 215.753409 174.948301 0.782882492
C 215.72691 176.389645 0.770909013
C 216.999386 172.799476 0.846616201
C 216.934818 174.191706 0.92498798
C 218.180625 174.966937 1.00268193
C 218.193864 176.393844 0.907041226
C 219.485789 172.765219 1.04826227
C 219.447427 174.222337 1.03494891
C 220.701802 174.937696 1.1216962
C 220.710437 176.365267 1.20127919
C 221.990326 172.771343 1.24353631
C 221.975378 174.189281 1.10636482
C 223.273642 174.887663 1.14866217
C 223.262931 176.331424 1.10817769
C 224.534014 172.776921 1.34985659
C 224.518356 174.207807 1.27662646
C 225.74282 174.91373 1.3113235
C 225.746545 176.370491 1.19020439
C 226.995958 172.748397 1.4319007
C 226.975738 174.141521 1.41309733
C 228.225736 174.885308 1.46344343
C 228.204522 176.350477 1.43775078
C 229.564636 172.759307 1.46183663
C 229.494425 174.1557 1.44817397
C 230.714302 174.91103 1.46591769
C 230.709152 176.354343 1.54507202
C 231.997535 172.779889 1.30861522
C 232.011928 174.223249 1.41751971
C 233.275963 174.960593 1.55822044
C 233.203541 176.366342 1.58670388
C 234.53612 172.779197 1.34287634
C 234.497948 174.224512 1.39268522
C 235.75731 174.938106 1.2351903
C 235.742915 176.394491 1.32117937
C 237.034776 172.759998 1.03571281
C 236.978175 174.226926 1.12319221
C 238.233392 174.93756 0.967972428
C 238.194887 176.377105 1.0246056
C 239.4503 172.806713 0.788088284
C 239.451159 174.242079 0.903676412
C 240.698544 174.988998 0.869454402
C 240.694506 176.410437 0.965513301
C 241.961386 172.800768 0.687077181
C 241.968098 174.268686 0.764414441
C 243.22094 174.965628 0.721940189
C 243.194052 176.422421 0.897715736
C 244.481604 172.782973 0.713874477
C 244.472918 174.184504 0.754755742
C 245.688567 174.92444 0.805741664
C 245.669013 176.393685 0.893473944
C 246.965416 172.776851 0.773939197
C 246.932479 174.216372 0.823967747
C 248.167208 175.004254 1.02323719
C 248.148102 176.446248 1.18196726
C 249.399555 177.128199 1.23449145
C 0.00310963077 178.532751 1.3592517
C 1.23273155 179.266168 1.30051462
C 1.24711523 180.683941 1.17673351
C 2.46237788 177.144271 1.22190551
C 2.48009 178.545634 1.18341613
C 3.74456965 179.288384 1.08815919
C 3.70527058 180.744299 0.980148874
C 4.92426993 177.142524 1.26805967
C 4.98074717 178.564766 1.08510094
C 6.20261587 179.278311 0.956660665
C 6.21858504 180.712252 0.878367718
C 7.44601865 177.138458 1.10257322
C 7.46148052 178.562545 0.948931651
C 8.74426215 179.220939 0.990333974
C 8.74104487 180.707638 1.00099948
C 9.91390606 177.045756 1.10489492
C 9.97363075 178.500352 1.11035935
C 11.2140197 179.196022 1.19737315
C 11.2251721 180.677964 1.13143246
C 12.4251626 177.066649 1.20389845
C 12.4648676 178.512347 1.23506144
C 13.689329 179.273932 1.18939042
C 13.7234418 180.704288 1.09234227
C 14.9462164 177.068848 1.14431932
C 14.9634374 178.514576 1.20036014
C 16.1787835 179.225249 1.21621864
C 16.2034958 180.651504 1.21103336
C 17.446239 177.050058 1.21742753
C 17.4149963 178.521684 1.26925647
C 18.6999521 179.257869 1.26493244
C 18.7293786 180.713922 1.23705236
C 19.996883 177.066419 1.31213951
C 19.9575314 178.513346 1.35087585
C 21.2157361 179.207569 1.31253122
C 21.1921734 180.691892 1.25586579
C 22.4983849 177.068798 1.34929328
C 22.4481117 178.49805 1.42943893
C 23.6886215 179.253211 1.42950896
C 23.6559942 180.678468 1.36437241
C 24.9618727 177.098323 1.3029
C 24.9375573 178.561375 1.43476726
C 26.174394 179.2587 1.39326286
C 26.1626634 180.714916 1.30424944
C 27.4583268 177.128245 1.2048007
C 27.4460155 178.564084 1.30754409
C 28.6936917 179.293929 1.21827273
C 28.6944041 180.738372 1.24364353
C 29.9375827 177.095797 1.2128439
C 29.9508087 178.559494 1.15319192
C 31.2086932 179.243227 1.29494663
C 31.1876207 180.701417 1.25156099
C 32.4233324 177.123293 1.3120947
C 32.4385278 178.507807 1.38428082
C 33.6601647 179.236574 1.5116405
C 33.6450548 180.68126 1.46576936
C 34.931072 177.07101 1.52460248
C 34.9280606 178.530588 1.56794299
C 36.1575556 179.242891 1.51559491
C 36.1714555 180.675928 1.45216192
C 37.4557525 177.038564 1.50690537
C 37.4393462 178.496893 1.48390939
C 38.6833526 179.255307 1.42533649
C 38.6841772 180.652163 1.29188215
C 39.9553922 177.046092 1.42608439
C 39.9518305 178.562217 1.41655429
C 41.2000641 179.307891 1.35741392
C 41.192371 180.699369 1.23067357
C 42.4653773 177.072673 1.24062974
C 42.4298737 178.570811 1.2340053
C 43.7438068 179.268122 1.11890264
C 43.7178498 180.691583 1.09848287
C 44.9283675 177.088409 1.07937291
C 44.9578199 178.582909 1.11880996
C 46.168964 179.314365 1.20148531
C 46.1675516 180.756183 1.20729512
C 47.4314235 177.128769 1.34806422
C 47.4046174 178.584467 1.23214863
C 48.6249475 179.295987 1.21300092
C 48.6558527 180.740499 1.11740625
C 49.9472043 177.150841 1.235903
C 49.8935967 178.605053 1.16150839
C 51.1240353 179.291967 1.14758819
C 51.1686118 180.715171 1.05246605
C 52.4310613 177.156626 1.14094189
C 52.3889874 178.588653 1.10785749
C 53.6262817 179.248246 0.947181142
C 53.6645765 180.725549 0.959533252
C 54.9010253 177.107472 0.807704912
C 54.9173536 178.530115 0.808109446
C 56.1694855 179.291283 0.772123825
C 56.1703543 180.727473 0.827455577
C 57.3788982 177.108083 0.706625936
C 57.395328 178.559261 0.804051077
C 58.6591941 179.242851 0.768372297
C 58.645255 180.746489 0.806784221
C 59.8597136 177.046766 0.677256987
C 59.8920502 178.512295 0.697074106
C 61.0820725 179.307173 0.606881699
C 61.0752529 180.720358 0.553024669
C 62.4172593 177.101904 0.611005081
C 62.3674985 178.596852 0.584026781
C 63.5926373 179.337859 0.595977595
C 63.5719151 180.75402 0.536720303
C 64.8864388 177.173988 0.697967377
C 64.8580165 178.637563 0.661411672
C 66.0792899 179.36159 0.693444947
C 66.1113401 180.780324 0.567407877
C 67.3958776 177.160541 0.729180555
C 67.3445292 178.61886 0.754756553
C 68.5975481 179.366525 0.670947643
C 68.5994576 180.801044 0.618417152
C 69.8367106 177.173033 0.741496067
C 69.8247656 178.631023 0.680740674
C 71.0843495 179.339912 0.651783524
C 71.0646561 180.827654 0.616374563
C 72.3207115 177.124626 0.750651108
C 72.3400338 178.595031 0.709179704
C 73.5644025 179.34253 0.669538369
C 73.5611453 180.774495 0.67356853
C 74.816174 177.195574 0.70165911
C 74.8043556 178.617562 0.643146768
C 76.0086696 179.335413 0.569155474
C 76.0105209 180.772858 0.57975582
C 77.2706407 177.159705 0.657260698
C 77.2514538 178.618384 0.585394046
C 78.4886585 179.311405 0.491974294
C 78.4971599 180.769481 0.402897426
C 79.800856 177.176853 0.532083475
C 79.8012756 178.640423 0.420990944
C 81.0509647 179.354011 0.395284037
C 81.0467688 180.802399 0.386362673
C 82.304274 177.150125 0.491648418
C 82.3118554 178.608859 0.455125989
C 83.5403821 179.30398 0.412236844
C 83.5339614 180.761957 0.358821721
C 84.8150687 177.155015 0.340508942
C 84.7977401 178.608773 0.2734449
C 86.0828159 179.329364 0.257347753
C 86.0746232 180.754147 0.177874935
C 87.3151356 177.137699 0.269464024
C 87.3296501 178.593615 0.323152952
C 88.5627609 179.272994 0.290919243
C 88.537067 180.734396 0.217464166
C 89.832131 177.156682 0.214337964
C 89.7890635 178.556054 0.235894021
C 91.0645346 179.253322 0.150030136
C 91.056664 180.71893 0.142597787
C 92.276165 177.112113 0.232482617
C 92.2980519 178.542456 0.148818861
C 93.5392047 179.250637 0.200417012
C 93.5290149 180.713217 0.284867372
C 94.8127486 177.135186 0.198959177
C 94.7934487 178.601146 0.244154697
C 96.0024489 179.358944 0.277463214
C 96.0169203 180.768624 0.371232656
C 97.2663921 177.146472 0.147334991
C 97.206488 178.605511 0.249551248
C 98.4907936 179.275034 0.355272423
C 98.4915642 180.720085 0.47369546
C 99.7697297 177.129505 0.0476931341
C 99.7407297 178.554925 0.253730288
C 100.964872 179.301964 0.272817313
C 100.971485 180.745764 0.311389374
C 102.188733 177.128683 0.150574697
C 102.221155 178.581121 0.264872939
C 103.473127 179.275733 0.347026407
C 103.449051 180.762147 0.361698542
C 104.7254 177.136769 0.357840157
C 104.713457 178.593983 0.356025045
C 105.966909 179.284955 0.371453417
C 105.934508 180.737661 0.352759095
C 107.224817 177.109054 0.290961739
C 107.192862 178.541805 0.323221549
C 108.446887 179.306086 0.255595504
C 108.442866 180.749375 0.258513716
C 109.692994 177.125558 0.0509585789
C 109.686554 178.5697 0.104472913
C 110.958459 179.328846 0.160311362
C 110.945774 180.816879 0.126100692
C 112.237949 177.1897 0.200390429
C 112.235235 178.637682 0.0911590729
C 113.486829 179.327455 -0.0159263297
C 113.504653 180.78711 -0.0473635435
C 114.690128 177.175696 0.123431823
C 114.776932 178.641364 0.00140557442
C 116.013388 179.390742 -0.0602810461
C 115.987554 180.780976 -0.0896000549
C 117.172061 177.155888 0.156916068
C 117.218121 178.620017 0.00796575209
C 118.49492 179.361018 0.0466507727
C 118.475416 180.783815 -0.107437057
C 119.676173 177.138184 0.148820843
C 119.667353 178.622046 0.0960457519
C 120.912221 179.320823 0.1400976
C 120.929944 180.767153 0.0869388791
C 122.222016 177.15585 0.286765431
C 122.175311 178.63558 0.309815136
C 123.448556 179.312371 0.417853643
C 123.454966 180.775366 0.340581786
C 124.680671 177.105985 0.467063587
C 124.672266 178.565281 0.499635861
C 125.92234 179.268506 0.414166023
C 125.883639 180.730689 0.369222056
C 127.171859 177.147302 0.499960056
C 127.185887 178.569014 0.450418964
C 128.457767 179.285879 0.446541255
C 128.429374 180.735052 0.301895326
C 129.671 177.103967 0.514932995
C 129.689924 178.565728 0.429986001
C 130.91127 179.249937 0.464846799
C 130.919731 180.694593 0.326281403
C 132.215233 177.118947 0.535654421
C 132.143309 178.598353 0.51710677
C 133.421714 179.275752 0.486774829
C 133.437441 180.716303 0.475474179
C 134.690109 177.112411 0.465764401
C 134.692255 178.566016 0.418687068
C 135.89985 179.257225 0.438466606
C 135.911603 180.730422 0.477896838
C 137.211995 177.133565 0.677272976
C 137.192378 178.571044 0.576551491
C 138.422776 179.310216 0.502717683
C 138.395688 180.72792 0.490622312
C 139.676284 177.062149 0.643133153
C 139.661114 178.528027 0.597534744
C 140.896654 179.301325 0.566971848
C 140.882142 180.71215 0.492560741
C 142.149142 177.114781 0.601443722
C 142.142383 178.581545 0.491701477
C 143.402885 179.318623 0.417998234
C 143.421435 180.727257 0.44435308
C 144.648475 177.137818 0.311480754
C 144.66023 178.566589 0.34542432
C 145.925719 179.265783 0.393713912
C 145.916627 180.730555 0.37590197
C 147.143033 177.141542 0.263596677
C 147.162086 178.59153 0.334185263
C 148.420598 179.259683 0.446076656
C 148.422018 180.65962 0.586515081
C 149.585775 177.157952 0.354156859
C 149.645194 178.569574 0.484034546
C 150.858223 179.24255 0.66609656
C 150.84986 180.691514 0.751584992
C 152.127763 177.124009 0.481494693
C 152.123976 178.543122 0.670066418
C 153.363322 179.275554 0.811040944
C 153.398696 180.70501 0.822217197
C 154.623386 177.121993 0.612878155
C 154.613254 178.58246 0.799442282
C 155.864754 179.27696 0.913282593
C 155.893891 180.679136 0.995341173
C 157.125443 177.135614 0.581443674
C 157.109391 178.514193 0.860975919
C 158.329979 179.23955 0.922829672
C 158.392317 180.666485 1.0509259
C 159.601428 177.117218 0.562228995
C 159.591953 178.555402 0.752330401
C 160.819335 179.303171 0.752860208
C 160.877095 180.705505 0.848552112
C 162.059973 177.110771 0.516896764
C 162.114815 178.515584 0.596177324
C 163.336225 179.260108 0.735708447
C 163.377488 180.734245 0.812798341
C 164.595947 177.129173 0.668048046
C 164.593828 178.557511 0.712079492
C 165.856322 179.253295 0.740799076
C 165.90279 180.66628 0.828216977
C 167.099268 177.073452 0.675670741
C 167.073069 178.519265 0.716560724
C 168.299543 179.264509 0.667677708
C 168.308974 180.728138 0.729272092
C 169.609568 177.129343 0.454287806
C 169.535996 178.570674 0.516405295
C 170.815044 179.325586 0.549853724
C 170.849774 180.724257 0.715043257
C 172.067985 177.070289 0.430130432
C 172.078611 178.54827 0.511295514
C 173.318642 179.269351 0.576307927
C 173.26942 180.610929 0.667920556
C 174.520814 177.124891 0.50256941
C 174.554718 178.551729 0.522092095
C 175.823906 179.314733 0.508623935
C 175.841665 180.707069 0.607572569
C 177.006184 177.094156 0.523012087
C 177.091805 178.540709 0.499861235
C 178.324279 179.224834 0.616540446
C 178.343052 180.693403 0.553234713
C 179.519062 177.145638 0.517154387
C 179.571298 178.55109 0.528379805
C 180.833686 179.285209 0.407520648
C 180.801322 180.71651 0.396757008
C 182.084156 177.100839 0.410227319
C 182.070803 178.565943 0.420110989
C 183.327783 179.22712 0.460231339
C 183.343099 180.660493 0.485334786
C 184.531094 177.058459 0.538109301
C 184.557621 178.532456 0.646377717
C 185.841779 179.237579 0.733198195
C 185.81081 180.63175 0.681452674
C 187.019936 177.067973 0.604534491
C 187.039707 178.535375 0.702283528
C 188.280411 179.194615 0.715975313
C 188.332953 180.654314 0.755342928
C 189.54066 177.000655 0.745808896
C 189.573077 178.483533 0.77302741
C 190.800767 179.188652 0.894674403
C 190.778046 180.628661 0.909713678
C 192.012373 177.04831 0.938390516
C 192.000062 178.466508 0.982070404
C 193.228942 179.18988 0.956745446
C 193.270484 180.642387 1.04939295
C 194.471612 177.024072 0.869540961
C 194.467502 178.475781 0.871625187
C 195.737152 179.178125 0.94040986
C 195.735183 180.671318 0.961162935
C 196.994832 177.026369 0.917098717
C 196.992857 178.478855 0.963555825
C 198.234627 179.188927 0.88648299
C 198.237933 180.634428 0.769434449
C 199.522462 177.037005 0.602298806
C 199.47132 178.474338 0.669869448
C 200.75734 179.262551 0.513549117
C 200.74544 180.678713 0.559322561
C 201.990726 177.014589 0.476081201
C 201.973269 178.487293 0.41740634
C 203.214306 179.211833 0.39162095
C 203.21038 180.614177 0.468685106
C 204.495651 177.01276 0.519656137
C 204.46957 178.450443 0.50347303
C 205.782012 179.204459 0.501193435
C 205.736678 180.634915 0.504317908
C 207.007742 177.049734 0.440004279
C 207.032866 178.472468 0.54003843
C 208.240456 179.226744 0.501741358
C 208.246707 180.659137 0.502537186
C 209.496708 177.084358 0.382446669
C 209.488406 178.542987 0.39148476
C 210.754112 179.233516 0.439499208
C 210.747487 180.715725 0.459151806
C 211.995826 177.078464 0.488806498
C 211.992416 178.530583 0.482169281
C 213.243557 179.21612 0.487366195
C 213.250031 180.662695 0.475876664
C 214.47401 177.067193 0.736113897
C 214.478812 178.532932 0.618910641
C 215.729105 179.254516 0.730365013
C 215.726716 180.660853 0.739794883
C 216.959891 177.135943 0.868547227
C 216.953185 178.549243 0.833306588
C 218.204589 179.251051 0.889137971
C 218.239203 180.691919 0.854945338
C 219.479592 177.089046 1.02719783
C 219.499845 178.549663 1.07749111
C 220.768429 179.274553 1.08434082
C 220.777014 180.724942 0.935500853
C 221.957495 177.085264 1.13942868
C 222.020469 178.524896 1.18548463
C 223.248422 179.185779 1.23331617
C 223.277032 180.663042 1.19863426
C 224.484754 177.060591 1.12960776
C 224.497647 178.510297 1.20163163
C 225.72167 179.212814 1.18525931
C 225.739418 180.652094 1.2788086
C 226.982245 177.113096 1.29686733
C 226.990207 178.539303 1.20612031
C 228.21791 179.240812 1.22060004
C 228.216831 180.655307 1.25720364
C 229.488904 177.064863 1.45626432
C 229.453532 178.532142 1.29369867
C 230.719478 179.248569 1.26012411
C 230.738195 180.675858 1.15273183
C 231.965679 177.081765 1.54088886
C 231.988347 178.527331 1.40060571
C 233.215158 179.225946 1.46758917
C 233.207056 180.675676 1.41811832
C 234.451368 177.075976 1.47752979
C 234.455007 178.509069 1.53862098
C 235.717719 179.243224 1.46120561
C 235.710705 180.714519 1.43984959
C 237.000828 177.110768 1.24665326
C 236.920036 178.538446 1.26278975
C 238.142603 179.26868 1.11265644
C 238.203065 180.706706 1.20000144
C 239.42946 177.092086 1.0192067
C 239.375049 178.553818 1.07532007
C 240.612511 179.285227 1.17164415
C 240.658372 180.758251 1.21672346
C 241.940696 177.11834 0.987866618
C 241.898163 178.564706 1.09598418
C 243.240275 179.320843 1.26954368
C 243.167583 180.761743 1.2376235
C 244.444645 177.129862 0.990117639
C 244.434707 178.551501 1.14608857
C 245.6275 179.300325 1.30081946
C 245.650862 180.761998 1.36058736
C 246.942933 177.149294 1.09702359
C 246.880265 178.574108 1.247642
C 248.165694 179.283182 1.39733684
C 248.148937 180.724265 1.48205132
C 0.0253217299 181.399946 1.40111266
C 0.0289515926 182.828895 1.54694389
C 1.25853649 183.62555 1.4023794
C 1.25041187 185.037935 1.35701096
C 2.44981547 181.444882 1.06550918
C 2.4572664 182.924297 1.13460167
C 3.70142764 183.620439 0.989604129
C 3.71573762 185.063042 0.957011211
C 4.93792705 181.487247 0.935025697
C 4.95846982 182.916839 1.03272118
C 6.24920569 183.591705 0.995149665
C 6.17432992 185.053436 0.849527582
C 7.47840818 181.424942 0.868361629
C 7.50054894 182.874964 0.954877509
C 8.75228103 183.566859 0.96779826
C 8.75499454 185.009589 0.893025371
C 9.97857314 181.373291 1.05601311
C 9.99760149 182.881633 1.01326029
C 11.2554886 183.571579 0.930024881
C 11.2715103 185.024485 0.888173499
C 12.4965761 181.417746 1.08770121
C 12.5275002 182.82865 1.00421132
C 13.7646142 183.566607 0.986282214
C 13.7649018 185.000715 0.905813542
C 14.9644734 181.396598 1.19136561
C 14.996225 182.84144 1.15630334
C 16.219345 183.58291 1.15473389
C 16.1887498 185.000265 1.08256276
C 17.4742072 181.437886 1.20216742
C 17.4704638 182.841527 1.17559253
C 18.7305551 183.556463 1.06928093
C 18.7021986 185.021361 1.1334171
C 19.9762477 181.429904 1.1980721
C 19.9502145 182.844336 1.15764333
C 21.2098412 183.573722 1.08626627
C 21.1748305 185.014373 1.07900845
C 22.428691 181.425899 1.27317837
C 22.4507994 182.890061 1.11407886
C 23.6815528 183.588083 1.03801293
C 23.67593 184.998567 1.03445367
C 24.8824391 181.408845 1.31243236
C 24.9148716 182.851117 1.13312133
C 26.1677355 183.574271 1.15781938
C 26.1373616 185.009048 1.05137907
C 27.4490236 181.443996 1.26661463
C 27.4038991 182.885912 1.17835702
C 28.6603189 183.592633 1.14833752
C 28.6594146 185.040085 1.11682314
C 29.9198928 181.456225 1.27888385
C 29.9366945 182.878308 1.19853564
C 31.1982604 183.583589 1.29425369
C 31.0981349 185.002927 1.32641401
C 32.4262606 181.433943 1.40135999
C 32.4181752 182.860818 1.29493422
C 33.6416825 183.534746 1.2880045
C 33.6185496 184.976742 1.22103157
C 34.9182268 181.377526 1.45843423
C 34.9065403 182.826686 1.36983371
C 36.1643919 183.551635 1.28336548
C 36.1187828 185.039201 1.2418754
C 37.4625708 181.394835 1.27575162
C 37.4417675 182.824558 1.14433948
C 38.6293859 183.564878 1.08634881
C 38.6256383 185.011456 1.06489895
C 39.9307733 181.374541 1.25811377
C 39.8815559 182.824374 1.19006787
C 41.110949 183.555716 1.12529271
C 41.1289132 184.970669 1.01645156
C 42.4569301 181.41216 1.11633577
C 42.3925462 182.875231 1.05532104
C 43.6660538 183.554708 1.01996527
C 43.6987251 185.002947 0.84851459
C 44.9042562 181.424786 1.1573687
C 44.8842189 182.829215 1.06722957
C 46.1887311 183.572547 1.13202767
C 46.1588483 184.98114 0.883755537
C 47.427475 181.459656 1.20920116
C 47.4240469 182.896116 1.16266548
C 48.6604202 183.618063 0.984544726
C 48.6480517 185.02998 0.860173117
C 49.9064963 181.45139 0.976012949
C 49.9514381 182.928349 0.899558026
C 51.1901493 183.631365 0.835634793
C 51.2250741 185.031918 0.797485229
C 52.4170195 181.440903 1.05573198
C 52.4055339 182.882234 0.893589232
C 53.6795671 183.57493 0.794657816
C 53.6535545 185.063518 0.782467348
C 54.8881083 181.443582 0.815165272
C 54.8968312 182.877201 0.794514681
C 56.1355305 183.623972 0.842922087
C 56.1572759 185.050575 0.684154839
C 57.4176907 181.463578 0.877650338
C 57.348516 182.927923 0.821143715
C 58.6522734 183.654664 0.716071425
C 58.598614 185.084098 0.695710033
C 59.8651825 181.454107 0.690744457
C 59.8673058 182.890535 0.577109899
C 61.0865657 183.596141 0.437065209
C 61.0902713 185.033543 0.424802594
C 62.3246827 181.456066 0.464761944
C 62.3440188 182.895673 0.4164351
C 63.54782 183.621028 0.282273059
C 63.5543697 185.108439 0.242363842
C 64.8791443 181.462005 0.484317379
C 64.8049574 182.943492 0.332394653
C 66.0596093 183.646981 0.383063797
C 66.0291648 185.076047 0.458304321
C 67.3655364 181.518429 0.540624563
C 67.3371272 182.955771 0.456927943
C 68.5684443 183.680218 0.537747766
C 68.5210078 185.115438 0.554032163
C 69.8229847 181.519655 0.564874096
C 69.8205917 182.939791 0.625748077
C 71.079662 183.659264 0.687554417
C 71.0569179 185.096551 0.731546137
C 72.3405398 181.494457 0.655445644
C 72.30461 182.91405 0.652155718
C 73.5229333 183.665843 0.599460101
C 73.4964373 185.106081 0.722869016
C 74.7924896 181.521988 0.663201125
C 74.7902107 182.994907 0.647169311
C 76.0491204 183.658069 0.625480352
C 76.0203098 185.136215 0.761768873
C 77.2391843 181.530701 0.485867094
C 77.2850937 182.954901 0.501998174
C 78.5668347 183.60476 0.572111133
C 78.530501 185.037799 0.614981825
C 79.7690681 181.508186 0.357233545
C 79.8028214 182.968794 0.459327364
C 81.0314561 183.701594 0.453029566
C 81.0419569 185.105286 0.488520003
C 82.254154 181.493545 0.396698107
C 82.3096613 182.943812 0.349434773
C 83.5278389 183.668952 0.230707213
C 83.5189428 185.103812 0.370260405
C 84.8211624 181.478651 0.236585703
C 84.7841406 182.927693 0.275885991
C 86.0325628 183.653589 0.225742649
C 86.0205944 185.109803 0.332784339
C 87.3021028 181.493412 0.188711739
C 87.2696259 182.900633 0.170069407
C 88.4985587 183.611022 0.194128707
C 88.5129911 185.061551 0.148308128
C 89.7893917 181.458236 0.164013713
C 89.7844484 182.892653 0.175836969
C 91.0404792 183.564171 0.192535341
C 90.9793484 185.042768 0.188502284
C 92.2854504 181.435159 0.215362222
C 92.2926715 182.880239 0.236630196
C 93.5262032 183.594743 0.282843695
C 93.4962464 185.046804 0.272598826
C 94.7500511 181.468317 0.362136513
C 94.7593952 182.90916 0.343741585
C 96.043992 183.574496 0.344070644
C 96.0223874 185.060363 0.310099527
C 97.2633377 181.40574 0.445428808
C 97.2884958 182.878187 0.404075231
C 98.4878342 183.600521 0.417088685
C 98.5070377 185.055423 0.294872777
C 99.7118604 181.443681 0.430781736
C 99.7146708 182.923167 0.479194723
C 101.021256 183.705137 0.403426884
C 100.997948 185.130865 0.232690289
C 102.22681 181.490678 0.298181944
C 102.257671 182.964538 0.375045815
C 103.501184 183.653272 0.29089107
C 103.483482 185.075946 0.225080189
C 104.719026 181.468624 0.369899185
C 104.742111 182.908303 0.27478259
C 105.982904 183.622691 0.173814581
C 106.000139 185.086623 0.0658928877
C 107.21698 181.493373 0.234099673
C 107.209848 182.935456 0.097555687
C 108.450801 183.626181 0.0924198139
C 108.476993 185.080933 -0.124277804
C 109.673113 181.502349 0.198308967
C 109.653441 182.932692 0.0463655107
C 110.923652 183.643732 -0.151917446
C 110.912193 185.050101 -0.364210752
C 112.219921 181.498413 0.0157745704
C 112.222902 182.93886 -0.117726652
C 113.450274 183.606595 -0.30403071
C 113.489625 185.078124 -0.524888937
C 114.752648 181.497329 -0.133907247
C 114.719477 182.917782 -0.287033107
C 115.964 183.608838 -0.279213432
C 116.010675 185.068705 -0.475239803
C 117.225325 181.464625 -0.120717439
C 117.241987 182.872699 -0.184161282
C 118.47759 183.584609 -0.255247422
C 118.531834 185.042957 -0.357883878
C 119.746468 181.453928 -0.0500572334
C 119.768891 182.885852 -0.0677378213
C 120.953737 183.613335 0.0329112377
C 120.976028 185.069224 -0.0237162437
C 122.189695 181.473248 0.18568336
C 122.197686 182.909278 0.123737464
C 123.415684 183.622018 0.237151205
C 123.428438 185.060805 0.146924049
C 124.677169 181.484209 0.400152695
C 124.65338 182.889943 0.339457077
C 125.908423 183.649177 0.199651654
C 125.948814 185.094288 0.201629218
C 127.142642 181.46696 0.245745414
C 127.149926 182.881886 0.265643529
C 128.390462 183.589874 0.315951115
C 128.43778 185.037114 0.406688222
C 129.663918 181.424728 0.314051353
C 129.733272 182.866439 0.33026264
C 130.935947 183.611445 0.354875641
C 130.875479 185.063662 0.357798813
C 132.177867 181.404628 0.429354442
C 132.17689 182.874905 0.452955951
C 133.416241 183.648874 0.386579654
C 133.393847 185.089213 0.510116074
C 134.689143 181.446046 0.495133557
C 134.691658 182.918126 0.383683446
C 135.942706 183.627236 0.446785332
C 135.887472 185.061201 0.587126941
C 137.155288 181.41876 0.490680286
C 137.188892 182.87698 0.446431864
C 138.416352 183.593094 0.537427079
C 138.435229 185.081738 0.567714662
C 139.679072 181.462836 0.447270437
C 139.640597 182.841355 0.487183911
C 140.867598 183.589558 0.572261246
C 140.967812 185.087398 0.654380604
C 142.124996 181.443601 0.54244329
C 142.160838 182.853393 0.58197151
C 143.429137 183.59581 0.572881732
C 143.445334 185.078269 0.718475687
C 144.655561 181.447398 0.401346691
C 144.65932 182.880824 0.505720638
C 145.98018 183.665567 0.591713255
C 145.97644 185.094907 0.70090979
C 147.19197 181.442853 0.572026524
C 147.235524 182.867225 0.640331467
C 148.511909 183.655797 0.687236461
C 148.485459 185.086205 0.75857737
C 149.63854 181.420128 0.702487263
C 149.696411 182.886887 0.798510918
C 150.917175 183.640127 0.838668511
C 150.915197 185.095028 0.84405001
C 152.137922 181.432416 0.761928449
C 152.132905 182.86142 0.848600139
C 153.432572 183.601418 0.926201154
C 153.442046 185.042511 0.865720983
C 154.653166 181.416383 0.822602746
C 154.641966 182.849715 0.951274232
C 155.932019 183.534217 1.12645191
C 155.928241 184.964753 1.14513396
C 157.159064 181.381964 1.09772469
C 157.146392 182.816759 1.08526498
C 158.40858 183.560482 0.993662825
C 158.423161 185.004199 0.974222338
C 159.599276 181.407799 0.924816124
C 159.640632 182.83124 0.898249974
C 160.863946 183.531775 0.939716878
C 160.899567 185.011362 0.928025438
C 162.137072 181.402014 0.878391027
C 162.125337 182.852286 0.909094652
C 163.373612 183.547158 0.876118888
C 163.393717 185.00583 0.684743452
C 164.639863 181.386438 0.822984991
C 164.688459 182.860463 0.862934933
C 165.889393 183.593788 0.873208394
C 165.906563 185.016321 0.840978596
C 167.108745 181.398103 0.836772222
C 167.11754 182.863701 0.823557337
C 168.379554 183.580074 0.776596895
C 168.32686 185.078804 0.716275953
C 169.598906 181.39166 0.748497978
C 169.605988 182.86966 0.767047156
C 170.859712 183.626504 0.707263613
C 170.817345 185.022013 0.668680187
C 172.066412 181.413378 0.697432445
C 172.070275 182.850849 0.66741235
C 173.324462 183.571021 0.616334264
C 173.306255 185.002803 0.50704239
C 174.522788 181.360751 0.615737302
C 174.576672 182.86081 0.634445338
C 175.838705 183.576545 0.64833329
C 175.823871 185.032062 0.555070509
C 177.112814 181.416139 0.5999429
C 177.086972 182.851179 0.664625996
C 178.366373 183.584854 0.630131827
C 178.317967 185.040119 0.520845356
C 179.563981 181.430122 0.416166579
C 179.584119 182.842786 0.537900419
C 180.839236 183.583496 0.565208675
C 180.836419 185.045411 0.49966392
C 182.072802 181.413073 0.461841141
C 182.113175 182.89701 0.520311988
C 183.364561 183.598156 0.576997013
C 183.356467 185.0294 0.600629709
C 184.587926 181.382054 0.625908515
C 184.546668 182.854509 0.637613236
C 185.840663 183.539537 0.722501684
C 185.809097 185.000856 0.773439437
C 187.07625 181.373165 0.764541024
C 187.083106 182.842077 0.786399864
C 188.331218 183.56732 0.872008392
C 188.272943 184.976991 0.895293871
C 189.554299 181.389652 0.840558002
C 189.548 182.803777 0.866386861
C 190.772974 183.544001 0.922271068
C 190.749281 184.973443 0.849348199
C 192.033268 181.335116 1.01087617
C 191.998364 182.801372 1.00614968
C 193.260325 183.589393 0.884037427
C 193.233425 184.994629 0.80053052
C 194.466488 181.346105 0.917318624
C 194.488006 182.792052 0.830662943
C 195.743381 183.557486 0.758065881
C 195.724081 184.979171 0.71040609
C 197.01295 181.414959 0.873648222
C 197.00887 182.845224 0.799737359
C 198.266607 183.562683 0.722599941
C 198.256924 185.011079 0.609143121
C 199.522565 181.393197 0.620123783
C 199.462143 182.863971 0.624050558
C 200.750669 183.562716 0.636275482
C 200.695085 185.004375 0.641064849
C 201.985 181.373406 0.619453642
C 201.995092 182.832424 0.636180266
C 203.230664 183.546448 0.737149672
C 203.214118 185.021668 0.787753724
C 204.461208 181.386028 0.507516348
C 204.478563 182.837084 0.652490788
C 205.701652 183.537094 0.717311636
C 205.713649 184.963944 0.848536464
C 206.97944 181.406109 0.506664903
C 206.965982 182.825242 0.599483493
C 208.261863 183.547954 0.619820575
C 208.309205 184.984897 0.646532854
C 209.502224 181.378262 0.467199284
C 209.488019 182.788336 0.475295756
C 210.765811 183.541274 0.542575674
C 210.78167 184.944877 0.652353188
C 211.978755 181.380097 0.587958176
C 212.046064 182.823944 0.572468858
C 213.218168 183.581379 0.522989093
C 213.218363 184.999249 0.603534437
C 214.496798 181.401826 0.632064451
C 214.497545 182.899348 0.649659145
C 215.757742 183.611351 0.742676629
C 215.70325 185.024952 0.764645698
C 217.008333 181.422592 0.885791887
C 216.968843 182.848205 0.79864911
C 218.255689 183.546173 0.815432834
C 218.225456 185.020156 0.809959338
C 219.499083 181.393607 0.860437353
C 219.521704 182.833645 0.862676
C 220.744035 183.559983 0.940965664
C 220.708755 184.99876 0.948095018
C 222.016331 181.399029 1.06367295
C 221.970468 182.862621 0.97838217
C 223.231845 183.537865 1.05018829
C 223.255902 184.952541 0.921004705
C 224.484163 181.381963 1.2720165
C 224.516 182.816109 1.12789911
C 225.797657 183.56036 1.1243006
C 225.765561 185.007897 0.974529352
C 227.015534 181.382275 1.22121754
C 227.02335 182.844646 1.13252725
C 228.250099 183.535695 1.08729464
C 228.228084 184.994015 0.997087471
C 229.484811 181.389473 1.12550581
C 229.496981 182.849363 1.09459618
C 230.741775 183.541421 1.11311707
C 230.739558 184.986119 1.05759389
C 231.977546 181.383354 1.21824622
C 231.993429 182.817483 1.1757547
C 233.246349 183.510357 1.20448395
C 233.29076 184.983559 1.08815946
C 234.41759 181.404246 1.43961705
C 234.457939 182.826732 1.38776839
C 235.723441 183.618056 1.28035214
C 235.75134 185.045458 1.09101555
C 236.941959 181.432484 1.32491522
C 236.98056 182.890342 1.27120438
C 238.221049 183.651418 1.25842312
C 238.229053 185.072098 1.11571613
C 239.427297 181.457917 1.23284569
C 239.43681 182.899955 1.26277263
C 240.740402 183.597065 1.17656605
C 240.707414 185.060342 1.13834445
C 241.934982 181.452289 1.17857646
C 241.983001 182.882962 1.15314828
C 243.217552 183.642681 1.27913815
C 243.215702 185.056428 1.27695952
C 244.41298 181.478385 1.32854272
C 244.41747 182.911542 1.38979415
C 245.688612 183.588527 1.53512468
C 245.665542 185.048589 1.60146138
C 246.935492 181.429779 1.54277339
C 246.896186 182.849134 1.62627792
C 248.161565 183.595012 1.63218769
C 248.193066 185.048792 1.63431396
C 249.408575 185.77929 1.4463826
C 249.410312 187.171375 1.3809533
C 1.2372821 187.92261 1.27152583
C 1.24513242 189.363815 1.33236647
C 2.4917712 185.817583 1.16745216
C 2.51121139 187.214224 1.20249075
C 3.76494118 187.91587 1.091183
C 3.79506472 189.335795 1.1537746
C 4.94591486 185.746045 0.906361165
C 4.9766831 187.184906 0.95634054
C 6.2039042 187.890744 0.879042835
C 6.19787895 189.366384 0.828482435
C 7.47020708 185.747711 0.845252752
C 7.4371026 187.17781 0.892536399
C 8.70285698 187.878798 0.802448728
C 8.69183903 189.284352 0.686855094
C 10.0227089 185.719476 0.88822345
C 9.98499725 187.202008 0.74355888
C 11.227285 187.897142 0.665362204
C 11.2351441 189.373622 0.61767466
C 12.5013558 185.730703 0.755443714
C 12.4995279 187.163301 0.633893261
C 13.6904 187.92831 0.719549222
C 13.7231368 189.357972 0.755944476
C 14.9633535 185.728677 0.893380646
C 14.9609919 187.178558 0.797025917
C 16.2435581 187.892102 0.816866522
C 16.2100549 189.344936 0.803887426
C 17.4616837 185.74176 1.14293668
C 17.4877112 187.145709 1.02157599
C 18.7079035 187.873304 0.953986486
C 18.7034042 189.336414 0.906436054
C 19.9278915 185.757214 1.08862139
C 19.9515316 187.173466 1.02369971
C 21.1966483 187.912328 1.09561908
C 21.1803443 189.397034 1.12479709
C 22.4699267 185.735835 1.02477168
C 22.4253727 187.165923 0.997543975
C 23.6277346 187.914359 1.03283051
C 23.6667111 189.351612 1.03306019
C 24.91669 185.718701 1.09330028
C 24.9373138 187.146261 1.07052353
C 26.1343286 187.904288 1.13017823
C 26.1243849 189.311134 1.16769799
C 27.3840752 185.70313 1.08575243
C 27.3773784 187.186812 1.10698869
C 28.6250478 187.939416 1.15871508
C 28.6197776 189.430774 1.2465029
C 29.8588971 185.779439 1.22296635
C 29.8340804 187.206081 1.19384589
C 31.1260702 187.877467 1.24471094
C 31.0902845 189.325627 1.25323578
C 32.3536307 185.70783 1.23834778
C 32.3399141 187.162899 1.24310096
C 33.6193651 187.887659 1.21688409
C 33.6232708 189.302087 1.19074922
C 34.8386739 185.707002 1.21010792
C 34.846617 187.152241 1.13675388
C 36.115996 187.865921 1.13412758
C 36.1485162 189.32892 1.04029698
C 37.3669151 185.731709 1.19887815
C 37.3918732 187.154882 1.10528767
C 38.6323313 187.921551 0.968330503
C 38.6427143 189.313261 0.870925021
C 39.8400369 185.711747 0.938720601
C 39.869576 187.178532 0.96073319
C 41.1394438 187.852254 0.930790944
C 41.1334364 189.305282 0.851812495
C 42.412345 185.688751 0.939242403
C 42.4354655 187.115171 0.928869686
C 43.6701997 187.838401 0.828093341
C 43.6078207 189.275509 0.81238865
C 44.9246232 185.726301 0.7038232
C 44.9218285 187.158844 0.678404819
C 46.144119 187.874796 0.634742771
C 46.1485636 189.303508 0.774412362
C 47.4219544 185.743162 0.780373799
C 47.3936228 187.187175 0.705472724
C 48.6247499 187.90934 0.804475731
C 48.6536444 189.357865 0.91735661
C 49.9057562 185.727487 0.840308851
C 49.921447 187.172489 0.834634347
C 51.1398919 187.949554 0.931224098
C 51.1545565 189.355936 1.08769002
C 52.4150115 185.793353 0.859864636
C 52.4043242 187.231152 0.933221379
C 53.6186781 187.993407 0.934643445
C 53.6537782 189.412619 1.07584921
C 54.9199438 185.777474 0.716635952
C 54.8946105 187.239139 0.830748719
C 56.1280054 187.944805 0.845560699
C 56.1085673 189.370888 0.940457807
C 57.3301557 185.798044 0.716091492
C 57.331981 187.226796 0.721730588
C 58.5436576 187.943857 0.655901883
C 58.5702779 189.384061 0.683808892
C 59.8426768 185.796365 0.588615759
C 59.8005594 187.26216 0.507291866
C 61.046153 187.970019 0.37798489
C 61.0175823 189.398888 0.404702465
C 62.2792286 185.827305 0.343820942
C 62.2557021 187.264411 0.349000561
C 63.5122536 187.953577 0.391100947
C 63.5302403 189.437316 0.430737324
C 64.812592 185.825029 0.340763851
C 64.7807368 187.27883 0.30459978
C 66.0132304 187.962018 0.35444712
C 66.0030517 189.429368 0.364460147
C 67.2631981 185.774762 0.494998651
C 67.2733079 187.244578 0.426779125
C 68.5038478 187.974487 0.47307744
C 68.5418714 189.399713 0.364958799
C 69.7503743 185.814609 0.661256026
C 69.7894234 187.242855 0.670446624
C 71.01911 188.024196 0.698385472
C 71.0094338 189.462132 0.623651014
C 72.2667622 185.814598 0.757946681
C 72.283663 187.272392 0.760281068
C 73.5243047 187.926971 0.730470306
C 73.5557387 189.417864 0.757048111
C 74.7061891 185.812179 0.790912369
C 74.7751035 187.233976 0.730582232
C 76.0184278 187.949304 0.753116112
C 76.0351238 189.359184 0.736302719
C 77.3193907 185.800738 0.738861206
C 77.2851598 187.223467 0.796276682
C 78.4937021 187.968548 0.622037117
C 78.505509 189.407401 0.630218737
C 79.7991455 185.828096 0.543702776
C 79.7298185 187.266918 0.568890594
C 80.9999322 188.01077 0.550157326
C 81.0420265 189.472254 0.500596706
C 82.2710548 185.89164 0.493728227
C 82.2326527 187.303668 0.510288573
C 83.511972 188.007948 0.450331998
C 83.4892027 189.439579 0.442972542
C 84.760468 185.779014 0.337261447
C 84.7298603 187.217437 0.363158985
C 85.9838297 187.957114 0.215269746
C 85.9983328 189.442371 0.229028877
C 87.2555584 185.799482 0.277782746
C 87.2822667 187.229771 0.173372613
C 88.4866787 188.010823 0.0853518462
C 88.5014434 189.438588 0.077724736
C 89.7595977 185.81423 0.11387651
C 89.7381288 187.279577 0.106307734
C 91.0105692 188.01681 0.0979083029
C 91.0241334 189.435343 0.174950094
C 92.2426651 185.773316 0.209519124
C 92.2568108 187.25759 0.154735068
C 93.4837533 187.973408 0.218682165
C 93.5684138 189.387617 0.238199273
C 94.7480657 185.764264 0.33720772
C 94.723638 187.222141 0.28063009
C 96.0214185 187.917998 0.366056902
C 95.9917621 189.373516 0.315583749
C 97.2970789 185.747766 0.338495272
C 97.2307094 187.163846 0.29927628
C 98.5011179 187.93715 0.20096135
C 98.4481092 189.392018 0.199764779
C 99.7558686 185.836317 0.209655488
C 99.7810079 187.234463 0.144089856
C 100.988451 187.947648 0.120690676
C 101.025901 189.395646 0.111993778
C 102.261645 185.79078 0.17797759
C 102.285475 187.241978 0.106283236
C 103.524302 187.923748 0.0410352867
C 103.482271 189.377012 0.0459854797
C 104.764745 185.757779 0.161012058
C 104.73958 187.209518 0.115626519
C 105.993852 187.957891 -0.03532693
C 106.021755 189.448489 -0.00702390783
C 107.225987 185.806837 -0.0158287261
C 107.228525 187.21819 -0.0457364802
C 108.452913 187.928376 -0.157054838
C 108.517071 189.410418 -0.114519798
C 109.707406 185.749238 -0.299219517
C 109.683455 187.206381 -0.247241197
C 111.012028 187.933979 -0.355056966
C 110.974056 189.371246 -0.275087218
C 112.200622 185.766163 -0.459909422
C 112.198616 187.235023 -0.521828979
C 113.438401 187.90042 -0.591832803
C 113.484122 189.372922 -0.580948854
C 114.710226 185.812735 -0.565369556
C 114.712872 187.209288 -0.579709891
C 115.973382 187.913186 -0.580984105
C 115.976928 189.342185 -0.615696126
C 117.293967 185.745479 -0.460171295
C 117.280738 187.19326 -0.53787567
C 118.515868 187.92087 -0.458912504
C 118.463857 189.310077 -0.332006627
C 119.749465 185.798263 -0.270797583
C 119.729818 187.188388 -0.304664797
C 120.987617 187.918803 -0.199608581
C 120.986118 189.355032 -0.192041592
C 122.188452 185.762914 0.0573187526
C 122.173892 187.196921 -0.0683693138
C 123.442661 187.950155 0.0955910211
C 123.472362 189.435985 0.0784728157
C 124.691124 185.786813 0.16572222
C 124.707296 187.243836 0.159837106
C 125.954027 187.948092 0.174622902
C 125.968373 189.402688 0.235197594
C 127.207023 185.81562 0.252208631
C 127.204215 187.245966 0.232586235
C 128.402454 187.999133 0.355351302
C 128.455379 189.430606 0.365835857
C 129.638389 185.785609 0.342233557
C 129.637091 187.233953 0.351509769
C 130.890061 187.94762 0.417129632
C 130.869866 189.40952 0.465277189
C 132.125277 185.778713 0.483295209
C 132.120562 187.225902 0.460268182
C 133.354308 187.926117 0.521691021
C 133.353342 189.374673 0.58827166
C 134.647015 185.786656 0.554380169
C 134.632995 187.207965 0.534256907
C 135.889693 187.948639 0.6733486
C 135.84167 189.348898 0.724095984
C 137.136024 185.780475 0.663051294
C 137.14139 187.221697 0.678436791
C 138.414492 187.934413 0.633224847
C 138.375195 189.3603 0.651530431
C 139.682314 185.788985 0.625167308
C 139.692786 187.221056 0.652744433
C 140.956017 187.959346 0.723821369
C 140.953922 189.362925 0.749195766
C 142.195174 185.810217 0.758309403
C 142.178655 187.259129 0.708069662
C 143.413438 187.966151 0.799323795
C 143.428312 189.392755 0.851128748
C 144.678815 185.780341 0.758175336
C 144.677924 187.249821 0.83797575
C 145.915695 187.932077 0.886549424
C 145.988053 189.384741 0.857486945
C 147.230576 185.819242 0.778698567
C 147.15898 187.2617 0.772896926
C 148.47053 187.902605 0.860295736
C 148.488482 189.356132 0.906851602
C 149.707406 185.806552 0.816477394
C 149.711958 187.221842 0.840357378
C 150.968517 187.94217 0.855179816
C 150.927856 189.38747 0.797770127
C 152.199495 185.773297 0.839676578
C 152.161978 187.212562 0.818805334
C 153.433362 187.916029 0.80162748
C 153.442081 189.372877 0.730294518
C 154.697348 185.743303 1.07176388
C 154.663306 187.152018 0.770227603
C 155.88671 187.841048 0.737468026
C 155.897651 189.306909 0.693265211
C 157.185515 185.694196 0.997153472
C 157.155529 187.148035 0.836711973
C 158.3955 187.84387 0.75016149
C 158.412111 189.317987 0.805313862
C 159.665531 185.749211 0.912153789
C 159.651919 187.127723 0.739013612
C 160.896254 187.90417 0.744450006
C 160.903671 189.334508 0.738007494
C 162.104932 185.71315 0.782712535
C 162.143324 187.191838 0.740591141
C 163.390378 187.896759 0.681599743
C 163.376621 189.337793 0.768184148
C 164.640328 185.748413 0.714311816
C 164.652933 187.231027 0.70492747
C 165.862616 187.952058 0.729988825
C 165.838623 189.376213 0.615428247
C 167.113494 185.774028 0.785935661
C 167.102815 187.213476 0.772450425
C 168.345258 187.905023 0.712470806
C 168.332294 189.396575 0.553564687
C 169.601565 185.749005 0.593028662
C 169.606599 187.195896 0.550124872
C 170.874178 187.895807 0.461000905
C 170.814931 189.343717 0.428008134
C 172.08223 185.722794 0.564732896
C 172.05815 187.127486 0.436582072
C 173.31114 187.947814 0.422501564
C 173.337996 189.354138 0.337540153
C 174.562877 185.714841 0.478726578
C 174.572348 187.172787 0.427344852
C 175.828496 187.876632 0.351091339
C 175.804374 189.29203 0.281084779
C 177.109177 185.730811 0.458020881
C 177.07972 187.141758 0.302880375
C 178.350098 187.864696 0.268640959
C 178.320966 189.330208 0.302840601
C 179.605417 185.735454 0.401728779
C 179.615881 187.190534 0.243102804
C 180.818319 187.894983 0.216670001
C 180.813886 189.362576 0.309215726
C 182.134868 185.70505 0.468753291
C 182.111158 187.174705 0.351627458
C 183.339952 187.923313 0.400763885
C 183.283 189.324504 0.518989721
C 184.590135 185.731155 0.643678564
C 184.604683 187.135717 0.47935661
C 185.816583 187.825659 0.521928237
C 185.75085 189.291867 0.509780658
C 187.078639 185.677981 0.795189698
C 187.068704 187.131958 0.732580573
C 188.290601 187.855396 0.793899465
C 188.263422 189.27322 0.749487424
C 189.550917 185.699517 0.859001508
C 189.54019 187.143555 0.751090463
C 190.778291 187.87765 0.633063138
C 190.758892 189.348997 0.611360921
C 191.964426 185.680493 0.770053666
C 191.999413 187.160163 0.606923453
C 193.255678 187.853763 0.438348945
C 193.19094 189.326788 0.357323126
C 194.492532 185.715682 0.676758721
C 194.459054 187.156566 0.487812693
C 195.677647 187.88659 0.460840113
C 195.710004 189.310664 0.407882814
C 196.969747 185.719268 0.591098325
C 196.965357 187.152614 0.564727829
C 198.225634 187.863689 0.452192068
C 198.24084 189.276816 0.376577146
C 199.507512 185.711917 0.524918895
C 199.484927 187.146127 0.485550894
C 200.720003 187.887168 0.46889343
C 200.737539 189.314304 0.398711212
C 201.939536 185.747602 0.747556924
C 202.007648 187.233645 0.613049017
C 203.265564 187.871208 0.621332065
C 203.235472 189.307904 0.586160947
C 204.513663 185.719292 0.820590628
C 204.533378 187.124501 0.71993617
C 205.790383 187.865564 0.668250462
C 205.780743 189.325958 0.67993242
C 207.034955 185.697196 0.748665596
C 207.003377 187.149122 0.71999025
C 208.253963 187.865721 0.803805607
C 208.241135 189.357637 0.794348761
C 209.561114 185.695897 0.643002214
C 209.478237 187.167763 0.713708021
C 210.734853 187.880334 0.752792683
C 210.768845 189.288052 0.818642138
C 212.009011 185.699142 0.692073197
C 211.976357 187.147968 0.750877654
C 213.229702 187.860355 0.80721938
C 213.30269 189.307296 0.897748763
C 214.453998 185.710098 0.707650579
C 214.444391 187.144654 0.816075973
C 215.692714 187.870637 0.96472481
C 215.742617 189.320966 1.00390132
C 216.963307 185.762776 0.828799887
C 216.997717 187.138664 0.953125916
C 218.233341 187.900709 0.928737411
C 218.263227 189.391105 0.900857653
C 219.497061 185.732775 0.881508111
C 219.510506 187.189678 0.893977697
C 220.779531 187.919307 0.90197924
C 220.803905 189.349915 0.921366372
C 221.993414 185.6429 0.904163082
C 222.001376 187.112766 0.885313366
C 223.254492 187.893275 0.920450051
C 223.272334 189.310754 0.923637006
C 224.504641 185.677713 0.946056301
C 224.508096 187.168256 0.936531392
C 225.742529 187.853496 0.927735399
C 225.744289 189.284303 0.866712811
C 227.011031 185.685627 0.91507424
C 226.998331 187.15787 0.916864003
C 228.253008 187.913836 0.968208055
C 228.225057 189.34381 1.01026059
C 229.498881 185.735881 1.07032781
C 229.452857 187.188113 1.01673968
C 230.683105 187.924053 1.00108463
C 230.718481 189.357957 1.0800203
C 232.014536 185.713764 1.05104954
C 231.98364 187.129004 1.02423381
C 233.250082 187.886514 1.03221733
C 233.224354 189.340159 1.02124621
C 234.496855 185.741953 1.07382719
C 234.486805 187.176657 0.995494803
C 235.749023 187.889178 0.937148357
C 235.695994 189.352208 0.857505249
C 237.001355 185.788505 0.988098611
C 236.999479 187.206433 0.932924908
C 238.232683 187.92096 0.982427215
C 238.181811 189.379082 0.932492279
C 239.470706 185.779412 1.17385774
C 239.486158 187.175469 1.07995285
C 240.674118 187.949406 1.11226131
C 240.671107 189.361884 0.991219323
C 241.96163 185.803538 1.18584316
C 241.908782 187.207327 1.23930755
C 243.158867 187.943019 1.24486229
C 243.187962 189.424411 1.05374146
C 244.470432 185.79968 1.45593135
C 244.465422 187.263673 1.40276311
C 245.697437 187.980619 1.37943437
C 245.6825 189.451038 1.2255018
C 246.915692 185.803197 1.66959178
C 246.915806 187.25435 1.52923963
C 248.196888 187.950201 1.39749845
C 248.199272 189.404339 1.2583922
C 0.0265345729 190.136415 1.29082088
C 0.0361654067 191.543115 1.29889151
C 1.2785275 192.296782 1.34766405
C 1.27967835 193.728653 1.36359766
C 2.52958706 190.064985 1.23287283
C 2.52881326 191.509111 1.37659304
C 3.7977831 192.241129 1.31525311
C 3.78400557 193.699816 1.19688116
C 4.99024441 190.04023 1.05602327
C 5.04025368 191.488391 1.05083726
C 6.25530455 192.255759 0.763564737
C 6.21855406 193.655567 0.691620854
C 7.4658057 190.09247 0.659785986
C 7.52413953 191.55226 0.634680822
C 8.74161304 192.22694 0.504887846
C 8.71601215 193.689227 0.477777824
C 9.9846892 190.039764 0.666192991
C 9.9835797 191.480605 0.611091064
C 11.2320451 192.184431 0.636448204
C 11.2345996 193.658991 0.566624046
C 12.4708228 190.062064 0.693833452
C 12.4789525 191.513993 0.658609998
C 13.6897099 192.245191 0.678227062
C 13.6995259 193.653069 0.680540493
C 14.979914 190.051187 0.781700745
C 14.9426125 191.498968 0.724389347
C 16.2225557 192.216123 0.826127398
C 16.2174589 193.648524 0.843900372
C 17.4587186 190.078889 0.85119111
C 17.4867024 191.523237 0.849304006
C 18.6895059 192.218155 1.01241638
C 18.6962087 193.688346 1.04754041
C 19.9303043 190.053369 1.04360552
C 19.9196647 191.51784 1.07914948
C 21.1834382 192.220715 1.2390641
C 21.1850697 193.65855 1.33585563
C 22.4058848 190.111596 1.05523303
C 22.4046169 191.536154 1.17542725
C 23.6379498 192.202858 1.35579807
C 23.6704444 193.628816 1.54565368
C 24.9170574 190.048158 1.09561677
C 24.8812612 191.484451 1.31905319
C 26.140533 192.222621 1.43384588
C 26.1158348 193.633832 1.65227853
C 27.3500492 190.081862 1.28611783
C 27.3945665 191.514346 1.38923931
C 28.6278265 192.232385 1.48495505
C 28.6398575 193.670453 1.51099023
C 29.8635699 190.082818 1.31449598
C 29.8858263 191.495063 1.43486904
C 31.1372304 192.221267 1.35643132
C 31.1518614 193.639905 1.32357419
C 32.3954264 190.02746 1.26968742
C 32.3855647 191.456006 1.28017355
C 33.6091662 192.163784 1.17085755
C 33.6625137 193.627572 1.15434792
C 34.8818043 190.021134 1.04662714
C 34.8685 191.446194 0.994139025
C 36.1059541 192.193681 0.959639522
C 36.1403167 193.606415 0.956407338
C 37.3875228 190.05779 0.939850544
C 37.3765187 191.475746 0.841144001
C 38.6252455 192.206782 0.838862361
C 38.6469364 193.654016 1.01254595
C 39.892796 189.981456 0.828781178
C 39.8661765 191.456008 0.793269487
C 41.0900756 192.193621 0.854593531
C 41.1320267 193.635824 0.929840766
C 42.3807263 189.980922 0.910100624
C 42.4001441 191.461063 0.873108131
C 43.6251951 192.176829 0.916095219
C 43.6234612 193.670157 1.02190369
C 44.88459 189.986143 0.850655582
C 44.9102275 191.48077 0.942474165
C 46.1316559 192.23064 0.999638995
C 46.1175929 193.688749 1.07901959
C 47.3853928 190.059066 0.839329315
C 47.3710477 191.481067 0.930016727
C 48.6301775 192.257317 1.03580771
C 48.5917537 193.678387 1.17354898
C 49.8922053 190.094335 1.06876457
C 49.9164823 191.537032 1.17275457
C 51.1612257 192.266214 1.33111347
C 51.1237718 193.730453 1.33774688
C 52.3793632 190.101714 1.13580689
C 52.3668136 191.579348 1.28643659
C 53.617502 192.282143 1.33459765
C 53.6502907 193.741868 1.32089648
C 54.8584749 190.096003 1.03703363
C 54.8435037 191.55141 1.16083459
C 56.1008139 192.296577 1.01309239
C 56.0652342 193.71995 1.10671222
C 57.3267523 190.118659 0.924217779
C 57.3842547 191.585771 0.957179885
C 58.6136775 192.335464 0.910849138
C 58.5858555 193.761357 0.953156515
C 59.7555325 190.147259 0.523777215
C 59.799133 191.530012 0.698085304
C 61.0458059 192.288576 0.627055847
C 61.0592456 193.723119 0.762105155
C 62.3018696 190.118145 0.467492464
C 62.2815106 191.575354 0.515795835
C 63.508019 192.309697 0.545956633
C 63.4903107 193.740885 0.538895506
C 64.7630363 190.105933 0.422298832
C 64.7398918 191.569319 0.453093048
C 66.0301727 192.261837 0.464249759
C 66.0128343 193.678823 0.564630935
C 67.2694559 190.126946 0.336808718
C 67.2900255 191.533927 0.460080977
C 68.4914264 192.284201 0.549679062
C 68.4763595 193.715867 0.583998665
C 69.7699266 190.143761 0.486442847
C 69.788454 191.606129 0.533864171
C 71.0331486 192.315848 0.506802262
C 71.0318384 193.725805 0.420422312
C 72.324081 190.179515 0.696537528
C 72.3185375 191.58949 0.572953322
C 73.5618758 192.29878 0.515873297
C 73.521474 193.755765 0.438783304
C 74.8000331 190.07638 0.729363878
C 74.7772306 191.528738 0.662986136
C 75.9999403 192.284383 0.709334211
C 76.0265882 193.734176 0.612523777
C 77.2624515 190.112649 0.634204023
C 77.2713913 191.602229 0.654737622
C 78.5214194 192.308825 0.589555172
C 78.5262832 193.776336 0.538224612
C 79.7957512 190.162373 0.685015121
C 79.7287423 191.586273 0.654235693
C 81.0184289 192.341982 0.478632898
C 81.0510838 193.804954 0.505085636
C 82.2757075 190.208918 0.399002855
C 82.2684317 191.655689 0.443725727
C 83.5361514 192.357311 0.397905266
C 83.5394344 193.808286 0.449124919
C 84.7665278 190.227287 0.328071088
C 84.7492357 191.630353 0.318204639
C 86.0046934 192.33685 0.207651064
C 86.0451666 193.76962 0.237161156
C 87.2388978 190.156139 0.0899713181
C 87.237955 191.635921 0.159358269
C 88.5125756 192.323857 0.149944001
C 88.4922212 193.777049 0.168111894
C 89.7707922 190.161147 0.146284219
C 89.7617659 191.605274 0.157796438
C 91.0090242 192.300061 0.343348352
C 90.9907547 193.755626 0.372379364
C 92.3034615 190.136692 0.257300026
C 92.2882542 191.603298 0.422026318
C 93.5092644 192.287828 0.524079055
C 93.4636837 193.709583 0.592320656
C 94.7681043 190.129221 0.312044525
C 94.7583025 191.558319 0.492996434
C 95.9868815 192.29404 0.425415421
C 96.0015851 193.681536 0.428731916
C 97.180177 190.12542 0.279103731
C 97.2018426 191.568342 0.239640736
C 98.4829231 192.277263 0.187842708
C 98.5179235 193.726912 0.244244929
C 99.7515624 190.060016 0.108891876
C 99.7460908 191.529412 0.118379922
C 100.989874 192.257183 0.0442207791
C 101.056446 193.751208 0.11016996
C 102.249573 190.091857 0.00994872586
C 102.23318 191.581201 -0.0381799945
C 103.499533 192.277831 -0.0633539613
C 103.510055 193.720718 -0.0879755806
C 104.749695 190.120042 0.0123065978
C 104.757433 191.58793 -0.0705456762
C 105.988808 192.30953 -0.109759368
C 105.989647 193.742874 -0.188271592
C 107.255906 190.130747 -0.0584135947
C 107.246136 191.582213 -0.0571252817
C 108.468118 192.338418 -0.08953601
C 108.465674 193.754637 -0.0213544378
C 109.709361 190.110043 -0.172805518
C 109.692034 191.561164 -0.172500325
C 110.920312 192.249874 -0.311600722
C 110.947953 193.705858 -0.347651537
C 112.218944 190.113787 -0.387290242
C 112.192611 191.524766 -0.429923967
C 113.46441 192.246004 -0.537391861
C 113.436021 193.710968 -0.497312129
C 114.731198 190.096684 -0.572757939
C 114.727115 191.518374 -0.621679376
C 115.975823 192.226675 -0.590904631
C 115.934743 193.672122 -0.495338195
C 117.265284 190.052348 -0.526715488
C 117.275155 191.487421 -0.592762396
C 118.485807 192.226165 -0.434832916
C 118.451302 193.671308 -0.355124899
C 119.760365 190.082582 -0.222612893
C 119.769511 191.566223 -0.365042596
C 120.995314 192.271548 -0.272723819
C 120.985207 193.739076 -0.303322529
C 122.20144 190.10288 -0.0546073323
C 122.213307 191.557798 -0.132931028
C 123.45685 192.271052 -0.0613868452
C 123.500104 193.691131 -0.0838950428
C 124.718982 190.142464 0.188928345
C 124.689953 191.547121 0.0830868799
C 125.929975 192.275191 0.117330446
C 125.991656 193.76073 0.131248672
C 127.204234 190.160051 0.311471688
C 127.203055 191.592318 0.226195495
C 128.410622 192.309619 0.411767061
C 128.446121 193.751845 0.423038571
C 129.649562 190.140721 0.473240255
C 129.682151 191.600066 0.532668
C 130.91803 192.312313 0.513146485
C 130.914999 193.727522 0.575773194
C 132.123284 190.125634 0.502259283
C 132.134057 191.551576 0.525649591
C 133.39523 192.288085 0.652022998
C 133.407955 193.701486 0.798815361
C 134.597018 190.07485 0.759215936
C 134.615834 191.536539 0.70432662
C 135.895293 192.234899 0.748256153
C 135.93309 193.646765 0.958037333
C 137.095209 190.07254 0.713274532
C 137.132972 191.496144 0.793919003
C 138.390486 192.234029 0.949903147
C 138.42482 193.625301 1.11503819
C 139.676519 190.040799 0.790538909
C 139.643124 191.471045 0.911716629
C 140.890672 192.225522 1.01259258
C 140.907658 193.665538 1.10916518
C 142.141951 190.138614 0.852031525
C 142.126601 191.554287 0.934854423
C 143.391385 192.244586 0.893502297
C 143.422092 193.662308 0.998366288
C 144.71557 190.091509 0.820092131
C 144.673061 191.51519 0.809917229
C 145.956623 192.252516 0.881868786
C 145.960472 193.688967 0.961420325
C 147.205247 190.108438 0.953825933
C 147.208103 191.547122 0.986883772
C 148.47949 192.318413 0.809889461
C 148.429589 193.75789 0.831373646
C 149.704856 190.069738 0.827535198
C 149.714352 191.523624 0.780297207
C 150.932239 192.244199 0.817625574
C 150.929364 193.703248 0.823495842
C 152.202814 190.12195 0.728312331
C 152.209547 191.539462 0.765756215
C 153.445743 192.239209 0.784840248
C 153.432985 193.689859 0.829132959
C 154.692338 190.086018 0.75363516
C 154.695187 191.540998 0.844080181
C 155.90841 192.267803 0.766994368
C 155.921076 193.717135 0.825895566
C 157.164062 190.079476 0.66896498
C 157.137343 191.551268 0.624558707
C 158.393544 192.254474 0.606977817
C 158.439944 193.708825 0.602073459
C 159.653976 190.079655 0.74646448
C 159.610933 191.555565 0.577581213
C 160.875251 192.266714 0.513677933
C 160.893078 193.729193 0.487481213
C 162.145256 190.087635 0.729269959
C 162.131802 191.536007 0.49837704
C 163.384464 192.256598 0.389255622
C 163.356684 193.685526 0.238541201
C 164.580644 190.087368 0.630212024
C 164.616817 191.488484 0.477011771
C 165.8577 192.253621 0.342272823
C 165.865879 193.677831 0.23680983
C 167.088451 190.110733 0.45120607
C 167.132087 191.552866 0.355981401
C 168.351217 192.322851 0.38406712
C 168.333924 193.697266 0.297030219
C 169.579941 190.1095 0.420364481
C 169.568144 191.557815 0.368932222
C 170.810676 192.230904 0.31588026
C 170.854664 193.689462 0.378551548
C 172.068985 190.064141 0.353335516
C 172.059164 191.491948 0.346170655
C 173.32834 192.243661 0.40514323
C 173.32749 193.680923 0.453246421
C 174.56773 190.090316 0.270202017
C 174.566985 191.515731 0.365433121
C 175.804717 192.210427 0.327728616
C 175.778673 193.651708 0.395760216
C 177.091313 190.020182 0.253497181
C 177.048279 191.519012 0.304988833
C 178.30146 192.234937 0.400713292
C 178.310767 193.705601 0.530375294
C 179.519268 190.058057 0.340428837
C 179.517661 191.526523 0.485549003
C 180.774928 192.260311 0.598157302
C 180.737482 193.717075 0.649682668
C 182.048169 190.103635 0.532593474
C 182.037867 191.505365 0.568640343
C 183.28751 192.22088 0.626044759
C 183.276412 193.632085 0.666521483
C 184.548693 190.041333 0.472661672
C 184.514762 191.45359 0.600681291
C 185.761767 192.168794 0.586484814
C 185.74767 193.618162 0.588419317
C 186.990433 190.068646 0.622887406
C 187.004887 191.487101 0.634736418
C 188.241556 192.15121 0.573800262
C 188.235057 193.600853 0.502688992
C 189.511704 190.073066 0.714629101
C 189.479806 191.468528 0.602218027
C 190.736739 192.147203 0.404469201
C 190.699851 193.629577 0.397553567
C 191.945293 190.069767 0.370964796
C 191.984959 191.458229 0.264898111
C 193.279473 192.171606 0.203059575
C 193.244708 193.646103 0.264830809
C 194.472164 190.028486 0.260940238
C 194.506371 191.484226 0.236787494
C 195.771369 192.190499 0.342268407
C 195.778548 193.662199 0.308489461
C 196.986548 190.013338 0.387613947
C 196.979897 191.466242 0.400123805
C 198.242093 192.164475 0.521470137
C 198.21381 193.618303 0.47753027
C 199.455307 190.012268 0.414662134
C 199.512677 191.449393 0.537953034
C 200.747635 192.155114 0.557231368
C 200.765522 193.602719 0.445695571
C 201.976031 190.015238 0.501210195
C 201.961259 191.433942 0.589596128
C 203.254306 192.143606 0.588511036
C 203.258912 193.574426 0.42377518
C 204.494869 189.999094 0.560979752
C 204.526574 191.454178 0.615730086
C 205.721905 192.214997 0.632595685
C 205.723812 193.628577 0.385076562
C 207.002203 190.049476 0.8020556
C 206.974823 191.481982 0.761803312
C 208.258917 192.228132 0.735734726
C 208.22108 193.64689 0.423475348
C 209.509869 190.037693 0.8359375
C 209.529294 191.500961 0.862733276
C 210.773072 192.223615 0.852274469
C 210.750609 193.6467 0.679074034
C 212.045434 190.074864 0.805054282
C 212.006706 191.460036 0.844201831
C 213.236778 192.214512 0.815553114
C 213.249402 193.682436 0.739287067
C 214.538199 190.075092 0.900866596
C 214.482736 191.492962 0.857160629
C 215.70084 192.263382 0.862072036
C 215.734791 193.711123 0.869291307
C 216.966296 190.075105 0.923835704
C 216.960475 191.547486 0.970411432
C 218.251176 192.230344 0.905526832
C 218.245204 193.690174 0.985491842
C 219.486497 190.080335 0.947826544
C 219.475337 191.502939 0.923757623
C 220.732849 192.210701 0.875744109
C 220.769107 193.651714 0.960250489
C 222.031563 190.043443 0.900702643
C 222.023773 191.486979 0.971105854
C 223.232717 192.173251 1.05887618
C 223.237824 193.606323 1.1443819
C 224.516841 190.039563 0.91120877
C 224.514519 191.479813 0.988159208
C 225.745269 192.213062 0.981083454
C 225.704343 193.68246 1.0847132
C 226.967879 190.023866 0.947474333
C 226.992609 191.510592 0.954889813
C 228.226119 192.198743 1.05510186
C 228.258527 193.66429 1.14738091
C 229.477158 190.015466 1.05247026
C 229.449685 191.448735 1.13037522
C 230.7135 192.176847 1.2062092
C 230.759888 193.596128 1.1968495
C 231.977643 190.09554 1.09255385
C 231.994681 191.492073 1.13271265
C 233.219227 192.25796 1.0238319
C 233.213659 193.677026 0.994647918
C 234.462312 190.087174 0.887135168
C 234.41869 191.52824 0.938449731
C 235.688768 192.283723 0.829822049
C 235.729476 193.690624 0.839601632
C 236.935932 190.065253 0.811554103
C 236.920289 191.490152 0.767481931
C 238.18296 192.212933 0.771256862
C 238.208758 193.664778 0.767101161
C 239.434517 190.105761 0.93815412
C 239.438031 191.505797 0.826369233
C 240.677821 192.263367 0.713974967
C 240.703189 193.720229 0.759172396
C 241.904841 190.071414 0.920576288
C 241.914998 191.522774 0.760380343
C 243.197537 192.273578 0.882240122
C 243.1581 193.671275 0.970215237
C 244.422127 190.118218 1.11260744
C 244.4395 191.544192 0.97013956
C 245.686258 192.314708 0.946233338
C 245.714395 193.770515 1.01263423
C 246.912505 190.104785 1.11335133
C 246.957096 191.553486 1.03409595
C 248.222103 192.233898 1.16207766
C 248.241711 193.672899 1.08211985
C 0.0328104289 194.449135 1.21314904
C 0.0334157875 195.883751 1.16311706
C 1.26020059 196.59695 1.02097473
C 1.22755886 198.018261 0.945099854
C 2.57199054 194.431839 1.20511858
C 2.51106415 195.854992 1.01228915
C 3.73908306 196.564683 0.968346159
C 3.7536039 197.994709 0.937627429
C 5.02175822 194.410639 0.934253439
C 4.96863423 195.856705 0.917129514
C 6.22269625 196.543622 0.741946069
C 6.2194068 197.998699 0.80567662
C 7.42590987 194.434847 0.474341511
C 7.46645608 195.83404 0.469772189
C 8.71551974 196.54853 0.411593202
C 8.6983069 197.984634 0.472759176
C 9.97820383 194.367374 0.485672389
C 9.98885528 195.817278 0.456607619
C 11.2048837 196.535188 0.495074848
C 11.1513753 197.961274 0.600802768
C 12.4980313 194.405273 0.593229853
C 12.4877818 195.837071 0.58164952
C 13.7183107 196.570118 0.822725799
C 13.6893368 197.971656 0.834079491
C 14.9809508 194.364673 0.777216035
C 14.9661772 195.81423 0.897123795
C 16.2164903 196.508291 1.08859447
C 16.2122694 198.016279 1.20007401
C 17.4215846 194.410919 0.892711978
C 17.4585411 195.853503 0.951529803
C 18.6951104 196.565396 1.09770807
C 18.6763808 197.994336 1.27241214
C 19.9039197 194.383993 1.23591667
C 19.9218264 195.827651 1.15418013
C 21.1965221 196.567454 1.34947342
C 21.1900815 197.98971 1.41941255
C 22.4834866 194.342211 1.47996402
C 22.4428805 195.77216 1.50985789
C 23.6607099 196.551566 1.63048659
C 23.693384 197.9801 1.64395689
C 24.8800336 194.370287 1.69745617
C 24.8880912 195.842184 1.68102775
C 26.1720004 196.529364 1.78047621
C 26.2016079 197.963278 1.76268748
C 27.3621654 194.367075 1.6236104
C 27.410862 195.791158 1.69427405
C 28.6757097 196.503799 1.68019907
C 28.6518034 197.967042 1.65516917
C 29.8489366 194.377829 1.42843171
C 29.8958143 195.783687 1.50351458
C 31.0943899 196.504198 1.4737366
C 31.1065107 197.949502 1.54692575
C 32.4136887 194.35454 1.24727163
C 32.3663753 195.800594 1.3106926
C 33.5920569 196.552348 1.30896803
C 33.6015102 198.001557 1.42469708
C 34.885175 194.339374 1.05139668
C 34.8504555 195.788835 1.16304376
C 36.0736052 196.519983 1.11300901
C 36.0991281 197.976245 1.14644378
C 37.3655045 194.350766 1.01220084
C 37.3524421 195.82477 0.99713907
C 38.6380133 196.54878 0.907821173
C 38.6582344 197.989971 0.89469046
C 39.910565 194.343301 1.00579578
C 39.9056793 195.810047 0.929536392
C 41.1765708 196.59139 0.794778618
C 41.16073 197.999623 0.732739611
C 42.3808155 194.364051 0.975563011
C 42.3885802 195.825797 0.875246211
C 43.6322933 196.600642 0.995813598
C 43.6585037 198.050682 1.05433118
C 44.8666755 194.39688 1.13198559
C 44.8479666 195.856677 1.14365649
C 46.1317193 196.554824 1.22433652
C 46.1483947 198.04144 1.17839232
C 47.3554687 194.429442 1.20397504
C 47.3640458 195.871444 1.24597801
C 48.6032228 196.624087 1.1798753
C 48.6420033 198.091363 1.12862812
C 49.8560214 194.404026 1.19578681
C 49.8794675 195.83879 1.12221805
C 51.0740021 196.582244 1.1202883
C 51.0937886 198.024337 0.986665028
C 52.3756273 194.419546 1.31608647
C 52.3597634 195.870388 1.16910204
C 53.6370933 196.541904 1.12723694
C 53.6156521 198.00728 1.02159762
C 54.8476025 194.441529 1.27657909
C 54.8865737 195.858677 1.19827284
C 56.1353037 196.601116 1.12968558
C 56.1290939 198.066398 1.03964889
C 57.3094775 194.446076 1.07492073
C 57.3548469 195.888993 1.12426602
C 58.6168966 196.645513 0.974493695
C 58.6296456 198.087618 0.895880594
C 59.7930837 194.450663 0.965155267
C 59.7955649 195.898226 0.973398656
C 61.0202655 196.617857 0.881992326
C 61.065579 198.068441 0.868808007
C 62.2552847 194.453284 0.699849333
C 62.2603332 195.855755 0.784319129
C 63.5311375 196.575365 0.709965656
C 63.5569632 197.989136 0.723876265
C 64.7331355 194.42035 0.511164495
C 64.7472788 195.88913 0.559097997
C 65.9682699 196.648573 0.566264214
C 65.9972551 198.089433 0.482857569
C 67.2015503 194.453309 0.641824774
C 67.2245876 195.883861 0.639647226
C 68.4660972 196.589596 0.560936994
C 68.5186144 198.076123 0.503565187
C 69.76236 194.405875 0.540442116
C 69.7845934 195.871151 0.465201493
C 71.0075456 196.625933 0.424797829
C 70.9562372 198.056296 0.447929996
C 72.2481042 194.459058 0.435277362
C 72.2449481 195.90513 0.459255642
C 73.5098422 196.644096 0.488359516
C 73.52091 198.071348 0.405997426
C 74.7448999 194.470575 0.517646735
C 74.7291096 195.902392 0.433550581
C 75.9964738 196.614999 0.329019837
C 75.9867414 198.083752 0.31314041
C 77.2879433 194.452033 0.557866096
C 77.2537807 195.949227 0.460444907
C 78.5272738 196.706134 0.370562521
C 78.4615142 198.137863 0.293746884
C 79.7881385 194.499832 0.465698015
C 79.8026838 195.943756 0.324879455
C 81.0563498 196.655532 0.381133117
C 81.0417648 198.09485 0.295922483
C 82.3291416 194.544869 0.482683612
C 82.3013325 195.966239 0.400121382
C 83.5335188 196.628565 0.253241997
C 83.4713902 198.0794 0.131936059
C 84.82581 194.510177 0.342801711
C 84.7584946 195.929595 0.317651184
C 85.9670257 196.667626 0.246047242
C 85.9682656 198.10564 0.0290490663
C 87.2743178 194.529875 0.225513777
C 87.2779958 195.970277 0.275130274
C 88.5172803 196.662861 0.248739629
C 88.5048659 198.091251 0.189259466
C 89.7691248 194.513593 0.261836754
C 89.7759614 195.93773 0.291892894
C 91.0317355 196.662624 0.29771142
C 90.9930555 198.113951 0.194381841
C 92.2449892 194.483113 0.4761318
C 92.2405468 195.903318 0.366616115
C 93.5200864 196.620526 0.351413615
C 93.4779065 198.062918 0.226340739
C 94.7734449 194.428302 0.417488055
C 94.7557985 195.916077 0.367087337
C 96.0197945 196.600043 0.254808276
C 95.9937506 198.079471 0.219785569
C 97.2050056 194.408657 0.268300297
C 97.2608536 195.856201 0.213611862
C 98.4902751 196.595454 0.157451245
C 98.5102349 198.015371 0.0311639169
C 99.7575807 194.423716 0.172794213
C 99.7563354 195.859158 0.104909438
C 101.047631 196.577046 0.0381672249
C 101.025093 198.030523 0.0973554258
C 102.265523 194.470024 0.0203646741
C 102.26736 195.867917 -0.0496152859
C 103.524215 196.601837 -0.0708905037
C 103.557255 198.071227 -0.00724266007
C 104.764967 194.466515 -0.192156309
C 104.746286 195.935599 -0.141115151
C 105.976838 196.655841 -0.174612568
C 105.999863 198.076559 -0.0780255317
C 107.229759 194.485714 -0.0732763561
C 107.210597 195.951508 -0.16455121
C 108.486392 196.641004 -0.17195097
C 108.50343 198.079866 -0.0143386963
C 109.721488 194.411255 -0.156364545
C 109.694686 195.89352 -0.216943294
C 110.966769 196.615751 -0.300856386
C 111.000156 198.030998 -0.0923404205
C 112.187427 194.416485 -0.3942475
C 112.206881 195.873117 -0.367055935
C 113.458987 196.603819 -0.354755858
C 113.468866 198.018273 -0.192820669
C 114.671849 194.418543 -0.518449771
C 114.718913 195.82342 -0.422195285
C 115.968527 196.603539 -0.412159435
C 115.997805 197.998656 -0.222540091
C 117.201364 194.393169 -0.378015265
C 117.222149 195.847602 -0.370765436
C 118.45069 196.58247 -0.317665848
C 118.494303 198.010571 -0.259891157
C 119.723045 194.430529 -0.322190005
C 119.713089 195.887467 -0.258685726
C 120.940319 196.615308 -0.0788476075
C 120.985624 198.034361 -0.0417591782
C 122.251403 194.464562 -0.153830184
C 122.230259 195.875019 0.0119886254
C 123.482365 196.58238 0.0797266261
C 123.480099 197.988014 0.169512645
C 124.732284 194.448692 0.0263884194
C 124.70276 195.871554 0.0762228487
C 125.978915 196.607006 0.306065159
C 125.975291 197.998867 0.448199778
C 127.24898 194.455812 0.304911043
C 127.201212 195.895569 0.376035373
C 128.392407 196.622597 0.495795057
C 128.43063 198.070928 0.499280371
C 129.634734 194.44975 0.546052696
C 129.640724 195.875459 0.618875573
C 130.865057 196.609119 0.736820828
C 130.921129 198.04127 0.772288986
C 132.191848 194.494921 0.674982552
C 132.190312 195.935503 0.827405948
C 133.428735 196.605524 0.992780848
C 133.455109 198.028418 1.01655558
C 134.683733 194.4097 1.01568439
C 134.645162 195.846295 1.0851768
C 135.909723 196.563235 1.20636569
C 135.910997 198.002486 1.30371781
C 137.148496 194.340753 1.20748708
C 137.145695 195.826418 1.34285581
C 138.419742 196.548571 1.37173936
C 138.439602 198.020275 1.30663761
C 139.668576 194.382556 1.22232132
C 139.668943 195.861067 1.33845854
C 140.926429 196.591714 1.2118868
C 140.905766 198.028363 1.1648107
C 142.177742 194.40253 1.08756676
C 142.150222 195.865294 1.15603779
C 143.41619 196.577064 1.06522956
C 143.432432 198.037567 1.03922866
C 144.689463 194.383526 0.97430275
C 144.659791 195.84987 0.96423384
C 145.938467 196.551991 0.922404514
C 145.962367 197.966098 0.912990257
C 147.20305 194.463728 0.922909148
C 147.189655 195.876133 0.873029916
C 148.429492 196.590046 0.835177548
C 148.413245 198.020755 0.822663467
C 149.631481 194.483801 0.827785151
C 149.620133 195.891178 0.761329551
C 150.905651 196.581385 0.80007727
C 150.917473 198.016449 0.827971784
C 152.173569 194.423093 0.856295156
C 152.173395 195.870584 0.847302398
C 153.436268 196.585488 0.840331094
C 153.43829 197.982978 0.780093754
C 154.674667 194.41748 0.826431651
C 154.648742 195.845088 0.809875216
C 155.905368 196.544858 0.729298049
C 155.897369 198.036911 0.703484982
C 157.197265 194.387337 0.708585766
C 157.189791 195.85208 0.644649087
C 158.414183 196.522932 0.541297721
C 158.359643 197.977664 0.529434579
C 159.658458 194.400509 0.5860407
C 159.641265 195.820242 0.558578706
C 160.908158 196.580764 0.470418555
C 160.908719 198.032751 0.428659167
C 162.106674 194.427216 0.359475777
C 162.141711 195.877442 0.334920321
C 163.374712 196.568989 0.182744015
C 163.374695 198.027348 0.163036794
C 164.605457 194.406691 0.146189784
C 164.617496 195.877753 0.0908686946
C 165.877311 196.614202 0.0861812119
C 165.832873 198.067886 0.0792221812
C 167.123406 194.431611 0.302216169
C 167.108428 195.831296 0.268528026
C 168.347036 196.606919 0.330201047
C 168.298518 198.037147 0.364247759
C 169.557592 194.389645 0.262202371
C 169.543715 195.853883 0.287225667
C 170.79988 196.552834 0.377992676
C 170.864187 198.005454 0.440630448
C 172.080388 194.426478 0.419137218
C 172.046914 195.859506 0.447715466
C 173.318646 196.558705 0.609824298
C 173.310416 197.977626 0.618717616
C 174.581916 194.371228 0.497888078
C 174.570155 195.796503 0.578063945
C 175.802391 196.528302 0.479991825
C 175.750558 197.975574 0.492638061
C 177.066519 194.405428 0.423161395
C 177.087725 195.88795 0.463527805
C 178.328893 196.579159 0.499812403
C 178.339638 198.020373 0.578775772
C 179.559026 194.462172 0.637128594
C 179.573177 195.887581 0.56608081
C 180.834757 196.548606 0.604272261
C 180.811261 198.012094 0.583100221
C 182.002545 194.390106 0.729945023
C 182.040738 195.830853 0.646588688
C 183.324111 196.51643 0.517055456
C 183.290108 197.947173 0.527929864
C 184.544597 194.336974 0.583138045
C 184.562296 195.796586 0.574303625
C 185.786674 196.545105 0.503693684
C 185.754825 197.959698 0.428241963
C 187.012113 194.366218 0.576192118
C 187.081136 195.773606 0.532607003
C 188.291912 196.499391 0.467531828
C 188.27871 197.912204 0.341445555
C 189.488211 194.312219 0.405131591
C 189.499247 195.736616 0.439555399
C 190.727138 196.463093 0.34939506
C 190.782402 197.903841 0.253429423
C 191.96461 194.323096 0.331978509
C 192.039388 195.761353 0.307740926
C 193.27125 196.484168 0.299392851
C 193.253071 197.877825 0.205479091
C 194.511169 194.322434 0.244453401
C 194.513575 195.774219 0.32178968
C 195.753661 196.497571 0.371127052
C 195.762691 197.951241 0.218934984
C 197.008253 194.328103 0.382403291
C 197.001841 195.767325 0.345943089
C 198.25122 196.466502 0.394395748
C 198.195039 197.922208 0.199119003
C 199.481971 194.346668 0.429534484
C 199.464937 195.805064 0.428914461
C 200.712504 196.494643 0.281145328
C 200.738951 197.957942 0.178646622
C 201.975085 194.280872 0.376893231
C 201.933697 195.783316 0.223485523
C 203.173245 196.49627 0.175886541
C 203.243169 197.945884 0.0941578616
C 204.497199 194.340828 0.301143631
C 204.460812 195.75889 0.156430906
C 205.747841 196.510408 0.123366289
C 205.795456 197.987439 0.00463398867
C 206.990475 194.347223 0.317473888
C 206.969366 195.815635 0.23260959
C 208.22896 196.551644 0.291704683
C 208.207677 198.016922 0.193252894
C 209.502934 194.379811 0.42212861
C 209.475705 195.811867 0.282149093
C 210.722924 196.526354 0.217805854
C 210.697769 197.961157 0.112546425
C 211.973739 194.439812 0.6311761
C 211.979417 195.833074 0.436793538
C 213.23144 196.554384 0.429692188
C 213.268747 198.01025 0.321718261
C 214.478342 194.43121 0.757012371
C 214.476516 195.883862 0.572591742
C 215.733374 196.581942 0.660874404
C 215.728417 197.971668 0.486364324
C 216.991547 194.39763 0.967146339
C 216.971127 195.831528 0.78174685
C 218.233515 196.542529 0.804963657
C 218.238713 197.992937 0.715152538
C 219.490375 194.337574 1.00240279
C 219.462192 195.806314 0.944505856
C 220.73251 196.532272 0.987983611
C 220.779782 197.950973 0.863378787
C 222.022014 194.356163 1.0852611
C 222.048365 195.790717 1.10412838
C 223.259062 196.514509 1.10883638
C 223.254006 197.925529 1.03662701
C 224.460349 194.362648 1.12644873
C 224.463026 195.818145 1.19880261
C 225.746322 196.507412 1.23947936
C 225.71345 197.943925 1.13930459
C 226.967018 194.378066 1.15183255
C 226.980844 195.823791 1.22031248
C 228.23436 196.546306 1.19603108
C 228.226232 197.994189 1.1272195
C 229.530523 194.404961 1.23165069
C 229.491648 195.858437 1.09708747
C 230.768601 196.551819 0.988405902
C 230.742549 197.976296 0.871766999
C 231.952369 194.349805 1.03052926
C 231.983115 195.819828 1.04827036
C 233.232028 196.585175 0.845233312
C 233.17643 198.050687 0.758791352
C 234.481991 194.450768 0.913979008
C 234.481217 195.888556 0.869956992
C 235.730702 196.583756 0.867623934
C 235.713262 198.041042 0.696333614
C 236.98079 194.386751 0.802550906
C 236.988369 195.818647 0.862655989
C 238.229196 196.63082 0.746581508
C 238.20264 198.062708 0.582142097
C 239.459048 194.44486 0.733270127
C 239.467286 195.876055 0.725600365
C 240.712323 196.608335 0.799946913
C 240.719205 198.05401 0.771583503
C 241.941643 194.431298 0.890355212
C 242.000935 195.877871 0.911794705
C 243.253936 196.61903 0.914259027
C 243.233569 198.053595 0.722775986
C 244.441082 194.439091 0.94175761
C 244.46871 195.860662 0.880603109
C 245.703269 196.582144 0.855105651
C 245.706425 198.022186 0.817349683
C 246.978701 194.438727 0.988957662
C 246.944855 195.888252 0.988999048
C 248.191117 196.592346 1.0506502
C 248.183177 198.02568 0.918335438
C 249.396947 198.7373 1.01124779
C 249.411256 200.168227 1.10798896
C 1.25246731 200.914682 1.03006142
C 1.26720219 202.35333 1.03276384
C 2.49888209 198.725859 0.983278194
C 2.46169474 200.163342 0.952121668
C 3.70083442 200.898287 0.856983809
C 3.6953286 202.307307 1.01955186
C 4.98669799 198.685401 0.847905272
C 4.95919076 200.143622 0.821127273
C 6.17300233 200.94389 0.866886277
C 6.2159895 202.361903 1.04634108
C 7.45024172 198.714016 0.690539329
C 7.43832016 200.192708 0.804019116
C 8.70506924 200.932536 0.892248345
C 8.71523933 202.369097 1.0427592
C 9.90294839 198.725166 0.593700246
C 9.93127077 200.202498 0.756201779
C 11.2338167 200.888541 0.878868501
C 11.2297549 202.371199 0.944520038
C 12.3857413 198.690017 0.791644649
C 12.4542662 200.115487 0.911798807
C 13.7024046 200.893234 1.01032344
C 13.697192 202.336351 1.17548772
C 14.9548071 198.744993 1.04107304
C 14.9587017 200.190461 1.0584688
C 16.1872581 200.863239 1.24733069
C 16.1324585 202.312058 1.43771798
C 17.4548251 198.725787 1.29549832
C 17.4180986 200.139965 1.35042237
C 18.6651611 200.869543 1.46986456
C 18.664646 202.309488 1.56988157
C 19.9434243 198.708248 1.40133809
C 19.9121508 200.150992 1.54283203
C 21.1299278 200.914408 1.6211598
C 21.1447026 202.34705 1.65191966
C 22.4361115 198.724169 1.5423609
C 22.3639134 200.175972 1.65146727
C 23.6908538 200.864541 1.72722255
C 23.6519083 202.324952 1.76956065
C 24.9553619 198.704523 1.77002991
C 24.9364241 200.139326 1.77334393
C 26.1688343 200.861913 1.79744116
C 26.1415798 202.300281 1.75071591
C 27.4038151 198.672359 1.78973971
C 27.4529194 200.097281 1.72964
C 28.6541276 200.84788 1.61655436
C 28.6158157 202.318186 1.60217524
C 29.8991 198.730917 1.51769075
C 29.9198308 200.141068 1.55095329
C 31.1058226 200.912922 1.54218863
C 31.1247533 202.316023 1.59343333
C 32.3525851 198.708694 1.49222487
C 32.393054 200.210669 1.5031002
C 33.6652315 200.878011 1.37758785
C 33.6210841 202.358629 1.31769258
C 34.8728137 198.736255 1.27555407
C 34.8677215 200.163781 1.29910355
C 36.1661586 200.864541 1.18564246
C 36.1317576 202.32273 1.10971918
C 37.3761437 198.68429 1.02316182
C 37.3965981 200.124617 1.13382084
C 38.6249444 200.875966 0.943493014
C 38.5798275 202.348696 0.931281096
C 39.9220371 198.74226 0.76054823
C 39.8638234 200.161765 0.792132029
C 41.0960609 200.881651 0.780221482
C 41.1436009 202.309596 0.869104402
C 42.4025195 198.736816 0.952745148
C 42.4108624 200.189933 0.911699685
C 43.617549 200.910955 0.930503085
C 43.6256572 202.346478 0.93479938
C 44.9356907 198.744442 1.13578376
C 44.8839052 200.208412 0.982424297
C 46.0938315 200.910458 0.974196288
C 46.1012173 202.359068 0.899519358
C 47.3795658 198.784379 1.13256696
C 47.3508563 200.222238 1.02589694
C 48.6364742 200.929137 1.02281463
C 48.5982082 202.34482 0.908276054
C 49.8974112 198.784777 0.984428549
C 49.8853155 200.199521 0.987930496
C 51.1462259 200.913469 1.02110997
C 51.1185384 202.343337 0.891669205
C 52.3812582 198.735808 0.983015647
C 52.452494 200.198788 1.02331282
C 53.6459574 200.998757 1.0835872
C 53.5782415 202.405755 1.03033144
C 54.8472261 198.768112 1.0069265
C 54.8986537 200.200814 1.03662335
C 56.1199493 200.959314 0.977679776
C 56.1005082 202.403546 0.928807852
C 57.3990223 198.796804 0.908161432
C 57.3293326 200.189942 0.898292662
C 58.5490915 200.958564 0.819534819
C 58.5604575 202.410672 0.819413326
C 59.8524189 198.821077 0.866834362
C 59.7993951 200.263457 0.837179873
C 61.0361435 200.979006 0.754819228
C 61.0952493 202.368199 0.712265851
C 62.3139204 198.758185 0.775117423
C 62.2691815 200.241314 0.752684822
C 63.5593033 200.920901 0.696281211
C 63.5421028 202.378794 0.655350011
C 64.7545145 198.772601 0.604724144
C 64.7450185 200.247247 0.625387754
C 65.9785426 200.938228 0.479918368
C 66.0298297 202.366499 0.440624685
C 67.2343127 198.795986 0.393962614
C 67.2417487 200.221471 0.445926667
C 68.4820482 200.964881 0.351200963
C 68.5071671 202.406987 0.18718734
C 69.723406 198.791706 0.441960654
C 69.730029 200.274905 0.372719811
C 71.0130678 200.992148 0.235991554
C 71.0303997 202.391732 0.0392825328
C 72.2100732 198.763284 0.379774656
C 72.2111854 200.200234 0.16855922
C 73.5104067 200.939626 0.102993862
C 73.5322024 202.374257 -0.0425761451
C 74.7452733 198.825378 0.256467604
C 74.7643188 200.246293 0.206057621
C 76.0743244 200.970717 0.100597597
C 76.0554164 202.359012 -0.131888574
C 77.2260018 198.822371 0.279863755
C 77.2558831 200.253298 0.126405974
C 78.4876084 200.95644 -0.0903125207
C 78.4797733 202.427217 -0.287679066
C 79.7582692 198.82505 0.209198284
C 79.7365165 200.2801 -0.0470389241
C 81.0305684 200.952453 -0.0885924028
C 81.0028137 202.406328 -0.289168056
C 82.2824883 198.836934 0.230381825
C 82.2728532 200.268861 0.0711069818
C 83.5105038 201.003528 -0.0277657863
C 83.5218898 202.457972 -0.302735479
C 84.753282 198.853335 0.108327058
C 84.7576891 200.257952 -0.00203115555
C 86.037465 200.954176 0.027336406
C 86.0448236 202.418264 -0.0967926192
C 87.2386215 198.793331 0.0873920589
C 87.2577903 200.222328 0.111432031
C 88.511575 200.949369 0.125438445
C 88.5343689 202.428361 0.152098309
C 89.7409176 198.850859 0.0954478555
C 89.8002595 200.252792 0.035402485
C 91.0066522 200.966224 -0.049832164
C 91.027217 202.372833 -0.15924842
C 92.2554611 198.824083 0.127314853
C 92.2382381 200.234591 0.023321512
C 93.5403987 200.927427 -0.0191221853
C 93.5278718 202.379245 -0.138858242
C 94.7707871 198.744536 0.234582983
C 94.7983883 200.200334 0.109820762
C 96.0249736 200.916662 -0.00987618195
C 96.0562025 202.339262 -0.15963457
C 97.2717283 198.7217 0.0243721435
C 97.2633633 200.186837 -0.0465593099
C 98.5327173 200.925347 -0.0306418867
C 98.4742317 202.346522 -0.109367331
C 99.7683525 198.737636 0.0198418559
C 99.8009543 200.201124 -0.0274202469
C 101.023791 200.914469 -0.0403554692
C 101.077551 202.338294 -0.0711171183
C 102.283884 198.745056 0.0546098075
C 102.269786 200.195716 0.0688136819
C 103.534048 200.909357 0.139774244
C 103.516993 202.359565 -0.00359175845
C 104.821307 198.809948 0.00764003877
C 104.760147 200.243578 0.117027615
C 106.083077 200.954133 0.065532925
C 106.075518 202.411189 0.0142034152
C 107.23496 198.760796 0.0427559956
C 107.305484 200.199476 0.0998021158
C 108.512915 200.92682 0.181885114
C 108.50794 202.36054 0.218787066
C 109.789408 198.787317 0.0438548318
C 109.774248 200.217461 0.169772341
C 111.083744 200.969273 0.145650506
C 110.993962 202.412759 0.0858056986
C 112.247896 198.726752 -0.0233469676
C 112.293283 200.161143 0.0834153841
C 113.563132 200.912022 0.0335597124
C 113.523348 202.336947 0.0501252487
C 114.770219 198.72544 -0.0694321796
C 114.834333 200.165511 0.0327356378
C 116.040081 200.902718 -0.051851833
C 115.994925 202.342443 -0.0263876341
C 117.214768 198.741343 -0.148875514
C 117.233966 200.165699 -0.135936209
C 118.473734 200.905317 -0.0781074746
C 118.48352 202.322984 -0.058563564
C 119.743744 198.748746 -0.0945778751
C 119.740101 200.199281 -0.0350412469
C 121.007831 200.920121 0.0586526532
C 120.986206 202.353084 0.0632908947
C 122.229876 198.718899 0.0965412467
C 122.243547 200.164109 0.074168508
C 123.47708 200.892488 0.158482844
C 123.490476 202.379784 0.115340623
C 124.735657 198.721692 0.383696491
C 124.707075 200.194728 0.319729987
C 125.931698 200.888481 0.438993668
C 125.952242 202.370508 0.380672151
C 127.186516 198.764345 0.533628992
C 127.16367 200.196866 0.50231464
C 128.434272 200.874205 0.569190445
C 128.442028 202.307025 0.391261504
C 129.66227 198.771188 0.636356697
C 129.702416 200.19263 0.605585668
C 130.958374 200.896416 0.618441426
C 130.918391 202.364456 0.563582262
C 132.185341 198.747047 0.912091481
C 132.188183 200.17045 0.806420891
C 133.414735 200.836814 0.767836904
C 133.457863 202.347065 0.653211019
C 134.696207 198.714972 1.17508993
C 134.672183 200.194277 0.954058275
C 135.925577 200.911045 0.838603633
C 135.955469 202.274583 0.547361597
C 137.200564 198.742495 1.16546538
C 137.228728 200.165644 1.01134801
C 138.457586 200.872207 0.952308495
C 138.425036 202.270579 0.61139657
C 139.660486 198.763181 1.19011779
C 139.696503 200.164786 1.00898701
C 140.935142 200.907072 0.969179315
C 140.915407 202.292522 0.692948145
C 142.132813 198.728877 0.969165675
C 142.152465 200.171816 0.95099157
C 143.371283 200.928911 0.913671189
C 143.417382 202.371131 0.759470649
C 144.704214 198.716957 0.967439578
C 144.652868 200.164454 0.9252397
C 145.883127 200.89731 0.940417451
C 145.8794 202.345186 0.930078392
C 147.175336 198.7357 0.845250339
C 147.161269 200.156161 0.885506971
C 148.384303 200.923383 0.898096797
C 148.348369 202.350259 0.948534001
C 149.668106 198.768296 0.828625074
C 149.623636 200.17536 0.845310394
C 150.870272 200.904395 0.812580833
C 150.872422 202.325152 0.799438715
C 152.194376 198.758973 0.752558599
C 152.11523 200.202909 0.691001249
C 153.374157 200.870567 0.598365809
C 153.411225 202.291048 0.521556447
C 154.619643 198.706028 0.737358317
C 154.646934 200.113986 0.635760678
C 155.897921 200.878715 0.734889167
C 155.897028 202.314539 0.671061854
C 157.135719 198.747483 0.625151381
C 157.127874 200.190586 0.739122941
C 158.377815 200.876446 0.715554976
C 158.387948 202.326374 0.746114562
C 159.645897 198.72901 0.621076106
C 159.649134 200.164447 0.628941973
C 160.888186 200.91498 0.508025206
C 160.863191 202.352224 0.596166416
C 162.16604 198.759045 0.325318109
C 162.12657 200.21151 0.394855706
C 163.399847 200.898354 0.368346692
C 163.341074 202.307841 0.604730984
C 164.599398 198.805497 0.0837695742
C 164.612755 200.212148 0.215915369
C 165.830563 200.933688 0.369225446
C 165.856152 202.345698 0.5196337
C 167.084081 198.772048 0.227832244
C 167.100727 200.215126 0.327329134
C 168.339865 200.911957 0.468501214
C 168.32304 202.38423 0.477662492
C 169.576492 198.757085 0.409334282
C 169.607527 200.198196 0.42503612
C 170.856754 200.913463 0.402335775
C 170.857268 202.356523 0.418137559
C 172.06026 198.678715 0.542973491
C 172.076717 200.158931 0.479875534
C 173.328241 200.85746 0.552435936
C 173.363208 202.31477 0.4971149
C 174.54734 198.701264 0.598889261
C 174.570104 200.157761 0.550998096
C 175.838746 200.916287 0.600210194
C 175.815745 202.331489 0.532250599
C 177.026028 198.707673 0.511477241
C 177.099315 200.166905 0.617269287
C 178.344461 200.854034 0.611420192
C 178.308484 202.308556 0.591330428
C 179.567774 198.700778 0.715118406
C 179.567119 200.122018 0.731945642
C 180.828662 200.82386 0.777590909
C 180.783242 202.299628 0.775486958
C 182.07856 198.681433 0.628887308
C 182.090244 200.131129 0.793735332
C 183.316939 200.834426 0.723406914
C 183.314065 202.300515 0.697172949
C 184.560226 198.676775 0.468434256
C 184.574599 200.089098 0.547699869
C 185.80971 200.850285 0.473195793
C 185.776268 202.295021 0.48471469
C 187.038277 198.651044 0.337249826
C 187.044822 200.083162 0.335309881
C 188.249703 200.793767 0.222366569
C 188.252257 202.230014 0.341512306
C 189.547376 198.612224 0.17652997
C 189.574079 200.055161 0.09723915
C 190.773199 200.807778 0.163857803
C 190.774881 202.260602 0.0922702159
C 192.055196 198.641363 0.150084117
C 192.013025 200.073031 0.144817201
C 193.256633 200.755385 0.0912525101
C 193.277818 202.254657 -0.0229304685
C 194.488245 198.640111 0.182201198
C 194.493336 200.091878 0.0854893059
C 195.739538 200.846137 -0.0147577001
C 195.787024 202.28408 -0.0388788806
C 196.969821 198.697975 0.173903822
C 197.012939 200.135471 0.1014551
C 198.215968 200.834501 0.116879311
C 198.284367 202.256501 0.0553388631
C 199.45249 198.631981 0.163161476
C 199.504546 200.076412 0.114456432
C 200.799038 200.823806 0.0650491493
C 200.794778 202.268891 0.0197244815
C 201.99733 198.629681 0.157286238
C 202.039603 200.097133 0.0861629306
C 203.264729 200.808568 0.0307760399
C 203.260565 202.25938 -0.0116181567
C 204.513767 198.687778 0.00386364251
C 204.526766 200.114701 0.092688374
C 205.755245 200.836695 0.0963934203
C 205.746157 202.280815 0.0428089426
C 206.994548 198.69112 0.0785469804
C 207.026197 200.142051 0.083488544
C 208.257886 200.866385 0.0978348606
C 208.282859 202.285011 0.077847093
C 209.442224 198.676699 0.142490422
C 209.462993 200.132521 0.208837175
C 210.744795 200.796738 0.199022823
C 210.800042 202.269478 0.2147423
C 211.964714 198.699587 0.184585657
C 211.99541 200.114921 0.257899414
C 213.281436 200.802328 0.410042439
C 213.33843 202.236987 0.356351486
C 214.53013 198.695936 0.364582307
C 214.525632 200.13665 0.347886098
C 215.756057 200.887137 0.280989478
C 215.790556 202.317205 0.200303583
C 217.004499 198.715155 0.530126266
C 217.00478 200.15501 0.410942946
C 218.261546 200.864584 0.489173695
C 218.315838 202.328972 0.490897701
C 219.520912 198.68711 0.68513687
C 219.514774 200.135658 0.660846877
C 220.766496 200.88162 0.790679529
C 220.748603 202.331049 0.708792192
C 222.033991 198.704991 0.858491045
C 222.013856 200.114634 0.880383217
C 223.244454 200.831168 0.919470486
C 223.239125 202.260327 0.849447238
C 224.495641 198.678446 1.09158134
C 224.524739 200.094788 0.889473883
C 225.762949 200.910153 0.889590315
C 225.730176 202.328936 0.772808081
C 226.987792 198.683436 1.12204241
C 227.01587 200.138052 0.953901119
C 228.223431 200.893807 0.864464339
C 228.271141 202.336585 0.633834791
C 229.497124 198.740226 0.908083724
C 229.485038 200.168108 0.769263798
C 230.722707 200.890709 0.600442981
C 230.740701 202.352688 0.49926753
C 231.968023 198.730102 0.76271286
C 231.969538 200.177042 0.565029666
C 233.203353 200.890646 0.425960503
C 233.186757 202.351742 0.457951606
C 234.458683 198.762217 0.711951577
C 234.439733 200.178079 0.54954641
C 235.67724 200.926432 0.385930625
C 235.663811 202.362634 0.340069239
C 236.956288 198.790306 0.5747984
C 236.943304 200.213411 0.465491889
C 238.222866 200.901611 0.514409042
C 238.164238 202.332845 0.457555171
C 239.480603 198.755882 0.636700662
C 239.465365 200.190547 0.607802294
C 240.691318 200.900818 0.585463428
C 240.695227 202.321344 0.53504093
C 241.991404 198.732538 0.744534671
C 241.947591 200.191259 0.661067714
C 243.192295 200.925248 0.638751129
C 243.193219 202.382402 0.610550828
C 244.470522 198.76046 0.782820824
C 244.460109 200.231961 0.708435057
C 245.701903 200.929115 0.78344479
C 245.709238 202.342343 0.795705724
C 246.942539 198.772916 0.877874728
C 246.964394 200.21359 0.869362972
C 248.203857 200.894809 0.970550583
C 248.183333 202.369299 0.956753862
C 0.00146988611 203.098666 0.983810891
C 0.00423396327 204.522026 0.88879441
C 1.28925392 205.228351 0.843162417
C 1.27686603 206.664102 0.88264967
C 2.50020066 203.026223 1.06981314
C 2.49593517 204.489393 0.974469254
C 3.71471949 205.232879 1.15206911
C 3.75025445 206.66959 1.14435488
C 4.94025611 203.034227 1.14700327
C 4.94953733 204.504563 1.19214723
C 6.18762542 205.252846 1.22613566
C 6.22550511 206.683754 1.34700777
C 7.41682501 203.083191 1.14105915
C 7.47808277 204.514078 1.20837005
C 8.72190085 205.22916 1.26814473
C 8.73386412 206.652921 1.37003214
C 9.94085394 203.083938 1.00234773
C 9.94305873 204.530861 1.17814555
C 11.2039327 205.198642 1.20075484
C 11.2219654 206.620546 1.1846196
C 12.4689304 203.061123 1.08414182
C 12.4344289 204.46618 1.33404508
C 13.6633481 205.158409 1.367397
C 13.6983662 206.643772 1.27112825
C 14.890411 203.097158 1.37039461
C 14.8845923 204.483453 1.44198451
C 16.1723509 205.241395 1.46692615
C 16.1859943 206.640733 1.44210775
C 17.3764432 203.008946 1.50389761
C 17.3989395 204.48209 1.46016247
C 18.6741 205.199518 1.47354449
C 18.6839334 206.683858 1.45204609
C 19.9092726 203.032339 1.58363698
C 19.9521154 204.482354 1.52569206
C 21.171274 205.208461 1.51196286
C 21.2043592 206.678219 1.40570032
C 22.3892842 203.074012 1.76123318
C 22.4186733 204.503246 1.61408393
C 23.6434272 205.212794 1.49437796
C 23.6660694 206.627405 1.34518399
C 24.8915005 203.049667 1.72359739
C 24.8906026 204.48378 1.54274088
C 26.1162427 205.198538 1.43062601
C 26.1580595 206.623174 1.28212624
C 27.3651207 203.04996 1.69628042
C 27.406516 204.475886 1.50798411
C 28.6378643 205.225241 1.48484038
C 28.6608623 206.642424 1.26844049
C 29.8663506 203.004425 1.57043715
C 29.8596501 204.490769 1.59767882
C 31.1000962 205.174022 1.42213495
C 31.1357446 206.64698 1.22634983
C 32.3417232 203.041214 1.42845764
C 32.3556097 204.475222 1.31941117
C 33.5989444 205.238317 1.23524899
C 33.6097752 206.674439 1.14273517
C 34.8765753 203.074074 1.21490731
C 34.8984485 204.530573 1.18241115
C 36.1521144 205.201996 1.03376018
C 36.1097016 206.625152 0.860398733
C 37.3643812 203.072702 0.980516921
C 37.386315 204.525837 0.983800639
C 38.6536466 205.209711 0.838334545
C 38.6340581 206.644502 0.647387334
C 39.8721304 203.046998 0.900297829
C 39.87859 204.497992 0.90503635
C 41.1116531 205.213435 0.767811514
C 41.1020355 206.673671 0.645685679
C 42.384827 203.004005 0.799068979
C 42.3729154 204.500642 0.786065471
C 43.6171092 205.232234 0.696938518
C 43.5871129 206.671802 0.655604752
C 44.8729029 203.070521 0.890508168
C 44.8138087 204.481374 0.769199278
C 46.0560659 205.200174 0.773461656
C 46.0336181 206.682249 0.731965762
C 47.3537415 203.069205 0.917786963
C 47.3386671 204.494246 0.898285357
C 48.5702586 205.23581 0.830475299
C 48.5927757 206.664802 0.761731335
C 49.8284435 203.082558 0.911866914
C 49.8577539 204.526725 0.823597792
C 51.0969313 205.292676 0.850614533
C 51.0433139 206.709501 0.761163686
C 52.3305759 203.160752 0.941936159
C 52.3641071 204.567226 0.887670395
C 53.575267 205.283611 0.847263926
C 53.5334296 206.726348 0.751560313
C 54.8127366 203.089707 1.01369715
C 54.8157355 204.534466 0.976759905
C 56.021121 205.295707 0.865063845
C 56.0036732 206.728411 0.856345894
C 57.2882438 203.134075 0.835977398
C 57.3202028 204.584829 0.805864271
C 58.5812706 205.297924 0.754243645
C 58.5125369 206.719551 0.712223434
C 59.8524701 203.097735 0.775651529
C 59.8492674 204.564078 0.682767139
C 61.1141804 205.255181 0.805728895
C 61.0641145 206.749445 0.788816507
C 62.3114047 203.06124 0.670652254
C 62.346 204.547875 0.723418951
C 63.5581157 205.274087 0.785268845
C 63.5533975 206.750229 0.735655254
C 64.7801044 203.123151 0.552223387
C 64.8178832 204.589563 0.636374432
C 66.0398684 205.310113 0.419253753
C 66.0385868 206.723962 0.417738271
C 67.2624315 203.114703 0.239179865
C 67.2839455 204.582924 0.236528207
C 68.5179495 205.284232 0.164524135
C 68.5175766 206.749118 0.145517822
C 69.747673 203.119414 0.0737141289
C 69.7568798 204.545186 0.0873375291
C 71.0166263 205.274777 0.0250413702
C 71.0147346 206.743601 -0.0685770034
C 72.28112 203.107388 -0.0394792889
C 72.2655126 204.559065 -0.0883502545
C 73.5243572 205.259056 -0.172831101
C 73.5079116 206.699038 -0.260715394
C 74.7954824 203.07842 -0.137183768
C 74.7572133 204.545905 -0.187950552
C 76.0273372 205.30725 -0.367612069
C 76.0621113 206.737084 -0.368011574
C 77.2536628 203.139182 -0.329243552
C 77.2662412 204.570954 -0.442838897
C 78.5049141 205.316151 -0.52249314
C 78.5376669 206.734302 -0.58934611
C 79.72539 203.151327 -0.392212949
C 79.7291428 204.581687 -0.475845229
C 81.0038942 205.299584 -0.558888537
C 81.034325 206.704605 -0.668738613
C 82.2783517 203.097528 -0.348058474
C 82.239278 204.535279 -0.457098507
C 83.5394151 205.271991 -0.536905365
C 83.5352158 206.685831 -0.69105642
C 84.8412085 203.167384 -0.26719278
C 84.7659605 204.56336 -0.370599867
C 86.0020657 205.310815 -0.324840099
C 86.01997 206.730382 -0.522234913
C 87.2702641 203.195292 0.0394517496
C 87.2265166 204.63339 -0.146145752
C 88.537502 205.319902 -0.222104162
C 88.5215268 206.716213 -0.442362507
C 89.7704254 203.112468 -0.033089987
C 89.7774148 204.573597 -0.0755363517
C 91.0272051 205.276091 -0.138769919
C 91.0080223 206.649916 -0.381059273
C 92.2771572 203.102572 -0.134165633
C 92.2676531 204.52193 -0.169280655
C 93.5295489 205.224519 -0.322890641
C 93.4761965 206.656709 -0.360183337
C 94.7968205 203.041826 -0.270013986
C 94.7421618 204.48063 -0.450510877
C 95.9917992 205.222926 -0.462947318
C 96.0255461 206.695778 -0.545543044
C 97.2494881 203.086232 -0.224495955
C 97.2659894 204.530328 -0.350767935
C 98.5227242 205.238865 -0.379975417
C 98.5034163 206.694435 -0.488805415
C 99.7845217 203.054322 -0.161353644
C 99.7911267 204.493882 -0.217936182
C 101.041832 205.210986 -0.177525469
C 101.024845 206.665449 -0.274627023
C 102.300465 203.105665 -0.066785716
C 102.306405 204.527139 -0.0869677983
C 103.530264 205.203542 -0.031228436
C 103.509549 206.633183 -0.0917256889
C 104.807453 203.080694 -0.0396083677
C 104.792574 204.524951 -0.0363945407
C 106.030533 205.266841 0.0493016572
C 106.015148 206.718973 0.101828882
C 107.28623 203.135668 0.164266715
C 107.303032 204.514942 0.118697699
C 108.545143 205.271711 0.179906288
C 108.501333 206.679188 0.257364147
C 109.741881 203.128546 0.125324574
C 109.804395 204.555861 0.137711062
C 111.062721 205.268138 0.0498313349
C 110.999204 206.723353 0.150701597
C 112.23054 203.078914 -0.00586768498
C 112.319665 204.527579 0.0318727713
C 113.549873 205.194237 0.0315324788
C 113.566132 206.645767 -0.0702165033
C 114.76932 203.048173 -0.0841687842
C 114.806396 204.485663 -0.0652972591
C 116.023197 205.230608 -0.226565768
C 116.038202 206.650775 -0.239402739
C 117.216518 203.069862 -0.0500218564
C 117.277375 204.514849 -0.175518978
C 118.487585 205.201108 -0.231211636
C 118.526522 206.616307 -0.272382517
C 119.725941 203.082531 -0.0322133116
C 119.711596 204.508016 -0.114155799
C 121.003306 205.2324 -0.192903137
C 120.982755 206.682795 -0.255426473
C 122.24403 203.060257 0.0840132124
C 122.22856 204.466616 0.0376655207
C 123.472737 205.24935 -0.091200227
C 123.486684 206.651268 -0.182425446
C 124.739032 203.102839 0.287821273
C 124.719727 204.522247 0.0907811049
C 125.997278 205.222602 0.0241298811
C 126.023181 206.680187 -0.158486266
C 127.214118 203.066218 0.270029864
C 127.229123 204.503338 0.0706696733
C 128.450691 205.259174 0.0864572036
C 128.441298 206.679167 -0.0304307837
C 129.684706 203.068536 0.38778939
C 129.714338 204.495277 0.270205901
C 130.949786 205.230918 0.284774589
C 130.968594 206.690789 0.121495466
C 132.190759 203.059989 0.639378758
C 132.192097 204.510521 0.488222235
C 133.47319 205.242958 0.369676414
C 133.461195 206.694627 0.172858511
C 134.68169 202.986079 0.48337893
C 134.723217 204.462942 0.262332767
C 135.951814 205.14782 0.022576763
C 135.968013 206.639704 -0.103533665
C 137.19845 202.994465 0.350480515
C 137.208152 204.425194 0.137050169
C 138.43399 205.197712 0.0657622165
C 138.410679 206.629443 -0.0296997054
C 139.644752 202.987318 0.536688131
C 139.658527 204.45342 0.208480246
C 140.898106 205.161942 0.223425947
C 140.897967 206.579329 0.0293185572
C 142.147939 203.028053 0.69205571
C 142.135755 204.452731 0.433223206
C 143.395978 205.19202 0.394376966
C 143.39838 206.602862 0.133512994
C 144.635037 203.039759 0.757277523
C 144.659813 204.462472 0.600194027
C 145.929303 205.213589 0.526204625
C 145.912938 206.599815 0.309799264
C 147.153775 203.115067 0.902391435
C 147.185723 204.486304 0.627825009
C 148.413196 205.205563 0.537071451
C 148.370499 206.638804 0.471536407
C 149.613876 203.069787 0.846371716
C 149.631908 204.493221 0.611235332
C 150.84732 205.224593 0.542400643
C 150.850132 206.663001 0.456831059
C 152.176171 203.056592 0.651871817
C 152.131599 204.53199 0.542805564
C 153.400496 205.17103 0.530803755
C 153.403942 206.618302 0.572642962
C 154.655974 203.013834 0.638257328
C 154.64129 204.462187 0.607630058
C 155.864634 205.192182 0.627529601
C 155.871486 206.670229 0.603917046
C 157.132669 203.039353 0.667569396
C 157.123872 204.474926 0.668571443
C 158.320205 205.195783 0.654172247
C 158.378814 206.668034 0.78033419
C 159.609162 203.046647 0.637423181
C 159.578704 204.492839 0.631368533
C 160.84837 205.208528 0.721645771
C 160.850647 206.681884 0.739275182
C 162.112798 203.075869 0.591294204
C 162.090681 204.502298 0.580977642
C 163.327944 205.216314 0.60601153
C 163.326081 206.658774 0.647853954
C 164.579881 203.056145 0.581060456
C 164.573041 204.510905 0.603940777
C 165.804945 205.243572 0.503476685
C 165.837535 206.650004 0.436602674
C 167.070575 203.078212 0.521094684
C 167.063332 204.521739 0.537362833
C 168.302675 205.21623 0.485179686
C 168.304974 206.708823 0.442042926
C 169.600275 203.092328 0.370463946
C 169.56384 204.513561 0.362056619
C 170.817361 205.252132 0.365861819
C 170.825732 206.651298 0.409804106
C 172.117174 203.082895 0.497396844
C 172.125202 204.522601 0.450663791
C 173.38039 205.196495 0.520082082
C 173.308818 206.663746 0.558900954
C 174.581563 203.070439 0.460870853
C 174.600784 204.49351 0.512460994
C 175.859818 205.19181 0.59567954
C 175.809285 206.652026 0.584137412
C 177.050647 203.060807 0.49401859
C 177.118961 204.48173 0.514048154
C 178.344583 205.225098 0.488252771
C 178.333627 206.633088 0.38293718
C 179.549361 203.049146 0.716358812
C 179.576546 204.475411 0.607733943
C 180.782368 205.211453 0.586054459
C 180.78982 206.654544 0.577926054
C 182.023026 203.028764 0.643426464
C 182.05189 204.478883 0.612760164
C 183.336943 205.19703 0.538965333
C 183.304588 206.639032 0.445881382
C 184.505341 203.028593 0.571887675
C 184.558321 204.492505 0.517060004
C 185.841672 205.18816 0.44433565
C 185.815653 206.642906 0.48069715
C 187.035192 203.03651 0.506365665
C 187.087156 204.444684 0.455925007
C 188.334071 205.175342 0.326513662
C 188.316823 206.603667 0.261865723
C 189.499414 202.936891 0.207718033
C 189.574498 204.394722 0.181740154
C 190.788339 205.181338 -0.0144561355
C 190.82106 206.60948 0.0239322505
C 192.024031 203.008635 -0.0476725287
C 191.989783 204.462987 -0.0842440167
C 193.306932 205.207927 -0.111475548
C 193.310183 206.643275 -0.135936521
C 194.557072 202.999033 -0.0896018346
C 194.545971 204.450402 -0.087335435
C 195.791205 205.180179 0.0679100178
C 195.789214 206.619213 0.127808802
C 197.043157 202.996841 0.00956767479
C 197.007033 204.447117 0.0802286393
C 198.298453 205.152345 0.0632936321
C 198.32679 206.616258 0.160879013
C 199.537723 202.966392 0.0611504778
C 199.52525 204.431559 0.130417355
C 200.802183 205.105527 0.229338707
C 200.796955 206.562589 0.298352299
C 202.038974 202.977149 0.0020010097
C 202.050915 204.36915 0.164614025
C 203.249795 205.156829 0.201209917
C 203.259547 206.598533 0.282719602
C 204.516921 203.005218 0.0223621487
C 204.510119 204.428511 0.102073579
C 205.73307 205.116453 0.13518754
C 205.780701 206.587777 0.184425168
C 207.037537 203.009152 0.0663604013
C 206.978376 204.443088 0.116164262
C 208.266248 205.132998 0.200478141
C 208.250752 206.626653 0.254004624
C 209.553717 203.001339 0.20804925
C 209.514085 204.432555 0.246673827
C 210.76907 205.127477 0.320093562
C 210.698494 206.582278 0.294797878
C 212.075794 202.961437 0.334322029
C 212.016495 204.410732 0.352350372
C 213.247556 205.127527 0.38744327
C 213.286151 206.57788 0.30600102
C 214.549145 202.992396 0.268590825
C 214.526663 204.428983 0.386614417
C 215.752434 205.169513 0.364815128
C 215.731038 206.631501 0.39697923
C 217.052592 203.045496 0.313282173
C 217.000748 204.456073 0.33994585
C 218.273486 205.16877 0.541292743
C 218.245838 206.594811 0.512182775
C 219.529881 203.007865 0.586792317
C 219.497469 204.432639 0.622910199
C 220.735285 205.192154 0.726837777
C 220.703602 206.584909 0.723772694
C 221.982979 203.013461 0.757918852
C 221.977088 204.477383 0.706341386
C 223.258458 205.180264 0.720753868
C 223.230378 206.620963 0.573780817
C 224.486964 202.997894 0.791480601
C 224.494679 204.449329 0.771849318
C 225.726436 205.225113 0.793835141
C 225.694421 206.662884 0.823238495
C 226.962341 203.089151 0.618482192
C 226.933135 204.525636 0.695773687
C 228.217165 205.23752 0.641617687
C 228.189866 206.66117 0.621885869
C 229.468368 203.054015 0.529853608
C 229.457959 204.525176 0.519346033
C 230.726998 205.217058 0.450563579
C 230.692801 206.669213 0.490715588
C 231.979038 203.09834 0.402644088
C 231.977018 204.520037 0.327299929
C 233.262516 205.26942 0.270360436
C 233.201393 206.67844 0.316874586
C 234.478877 203.124264 0.328299362
C 234.450014 204.56234 0.223001994
C 235.736493 205.249152 0.286548258
C 235.713746 206.657106 0.388057642
C 236.931542 203.003722 0.404093674
C 236.962224 204.451663 0.45725166
C 238.202369 205.167583 0.576118051
C 238.212919 206.607448 0.512437961
C 239.418894 203.043594 0.513814606
C 239.489137 204.494223 0.586489938
C 240.721718 205.23063 0.600915195
C 240.726735 206.64858 0.568193975
C 241.941623 203.071759 0.615254755
C 241.976293 204.531389 0.626798081
C 243.251296 205.277336 0.616330768
C 243.251636 206.665952 0.595946893
C 244.477186 203.086892 0.683917772
C 244.507273 204.528484 0.630139188
C 245.753437 205.225347 0.668617535
C 245.694773 206.682674 0.69432265
C 246.975129 203.030129 0.881275327
C 246.966206 204.469497 0.800060586
C 248.188208 205.205931 0.861299657
C 248.170409 206.657997 0.84400164
C 0.0377729357 207.384126 0.867603314
C 0.0647496055 208.813561 0.801148334
C 1.30040798 209.545955 0.827924746
C 1.32138323 211.006708 0.793742742
C 2.49012711 207.37588 1.09148976
C 2.53788637 208.835849 0.972786044
C 3.80688974 209.51863 1.04269499
C 3.81766019 211.005204 0.920963652
C 4.98385312 207.389331 1.20050901
C 5.0061912 208.824714 1.13911583
C 6.32479592 209.546842 1.18808504
C 6.27225382 210.979608 1.13962132
C 7.51448902 207.398828 1.41722648
C 7.53983061 208.826376 1.41861481
C 8.77542129 209.483453 1.26657277
C 8.77352175 210.947231 1.14254308
C 10.0150044 207.37823 1.33316059
C 10.0121122 208.809125 1.2845192
C 11.2502852 209.5593 1.17212868
C 11.2492884 210.983363 0.987389094
C 12.4614044 207.344381 1.16539223
C 12.4906016 208.781551 1.11069219
C 13.7349006 209.476179 1.06769481
C 13.7144532 210.897481 0.962868444
C 14.9158619 207.361064 1.29383603
C 14.9495837 208.795245 1.24357865
C 16.1801482 209.518434 1.32101205
C 16.215902 210.965446 1.20555188
C 17.3961339 207.379758 1.37285886
C 17.4013457 208.811988 1.31793202
C 18.6629423 209.499032 1.28983233
C 18.6457465 210.968634 1.11483732
C 19.9252193 207.35815 1.37650513
C 19.8785456 208.814538 1.23957665
C 21.106732 209.515269 0.994851898
C 21.1688085 210.992137 0.855996185
C 22.4571961 207.379549 1.24529064
C 22.3226417 208.821489 1.00643496
C 23.6023 209.500902 0.809725695
C 23.6178123 210.938728 0.739937783
C 24.9270678 207.343497 1.16456078
C 24.8754017 208.798136 0.939267257
C 26.1060577 209.515267 0.85344907
C 26.1117196 210.948392 0.750930598
C 27.3690699 207.342952 1.23951989
C 27.3629163 208.770854 0.924829966
C 28.6376679 209.525419 0.80553252
C 28.6221005 210.942884 0.70302907
C 29.8678607 207.375071 1.20153442
C 29.859637 208.834392 0.970729893
C 31.0595054 209.541875 1.05532784
C 31.128258 210.980682 0.843059431
C 32.3631273 207.348152 1.15143703
C 32.3266894 208.817694 1.10801151
C 33.5792691 209.499232 0.999192475
C 33.5962143 210.9861 0.746436197
C 34.8232729 207.412127 1.01965405
C 34.8429445 208.861358 0.973303073
C 36.1060846 209.530852 0.7490056
C 36.1391756 210.969065 0.692007553
C 37.3733414 207.345627 0.632211331
C 37.3454488 208.809574 0.605065356
C 38.597383 209.50668 0.552946618
C 38.5852644 210.950979 0.612607389
C 39.84938 207.36461 0.604819908
C 39.8372524 208.787219 0.564505252
C 41.0841344 209.539545 0.650005721
C 41.0942592 210.933673 0.707208165
C 42.3792065 207.396183 0.609859
C 42.3178383 208.873852 0.61335593
C 43.5267783 209.552225 0.728817248
C 43.6208331 210.967473 0.862695749
C 44.8017129 207.375328 0.684995322
C 44.8085809 208.836974 0.67648222
C 46.0557935 209.565619 0.740906297
C 46.0656737 210.980141 0.807027353
C 47.3233982 207.395872 0.721983893
C 47.3272742 208.857485 0.756829185
C 48.6281447 209.547638 0.819273661
C 48.5965426 210.986032 0.695371672
C 49.8015222 207.422593 0.713619006
C 49.8478796 208.821283 0.733944624
C 51.0909146 209.567192 0.716462835
C 51.1052039 211.009567 0.615245107
C 52.2900723 207.440132 0.740113344
C 52.3191613 208.839469 0.668490614
C 53.5834316 209.589775 0.697114271
C 53.5943107 211.006263 0.630580153
C 54.7736373 207.433615 0.764486666
C 54.8480051 208.823688 0.629013165
C 56.0540781 209.589562 0.561944159
C 56.0668988 211.003594 0.481014699
C 57.2979411 207.422425 0.808487204
C 57.3195466 208.881886 0.67721852
C 58.5814673 209.584083 0.552183053
C 58.5488358 211.001533 0.321582788
C 59.7898481 207.441495 0.632861859
C 59.8399254 208.889265 0.567094291
C 61.0876698 209.610597 0.587789948
C 61.0522245 211.085864 0.487021481
C 62.3231882 207.469018 0.775603497
C 62.3143274 208.918687 0.627997982
C 63.5357495 209.624537 0.475657834
C 63.5428103 211.042249 0.371000384
C 64.7957942 207.45385 0.462350537
C 64.758999 208.877964 0.287674343
C 65.9897531 209.599863 0.145434172
C 66.0696916 211.06667 0.0879722228
C 67.2453703 207.424567 0.300914981
C 67.2867866 208.91091 0.203133324
C 68.56327 209.580219 0.0243270061
C 68.541373 211.032485 -0.122732991
C 69.7823705 207.455399 -0.00589680668
C 69.8103714 208.90363 -0.125528844
C 71.054511 209.611493 -0.302803359
C 71.0293449 211.066499 -0.386261568
C 72.2667153 207.475481 -0.233809605
C 72.2952256 208.912784 -0.34037447
C 73.5249636 209.620455 -0.406047401
C 73.5325156 211.039642 -0.500243966
C 74.8029739 207.475076 -0.3426651
C 74.8094271 208.904852 -0.394097517
C 76.0413556 209.601702 -0.623187487
C 76.0007658 211.031074 -0.691874297
C 77.2729267 207.492055 -0.546457918
C 77.2490395 208.876721 -0.660257981
C 78.504325 209.560822 -0.832791105
C 78.504955 210.96983 -0.85525503
C 79.8072669 207.416597 -0.761179863
C 79.7456066 208.840038 -0.960365112
C 80.9685581 209.586409 -0.99642575
C 80.9946141 210.963173 -1.11139567
C 82.2573164 207.392389 -0.734928
C 82.2556685 208.878042 -0.884069429
C 83.503538 209.593867 -0.877489696
C 83.4556935 210.98521 -0.972086789
C 84.7973181 207.411343 -0.721875736
C 84.7710363 208.834692 -0.786513117
C 86.0471332 209.566995 -0.73505498
C 85.9623136 210.995107 -0.822301696
C 87.2642664 207.404949 -0.465079421
C 87.2708907 208.825469 -0.601640852
C 88.5477777 209.537518 -0.704058418
C 88.5049311 210.983119 -0.751681766
C 89.8248746 207.417102 -0.585936328
C 89.7952171 208.818195 -0.650019459
C 91.0518678 209.543585 -0.650840916
C 91.0609128 211.03299 -0.783225109
C 92.2744173 207.383107 -0.432585653
C 92.2915289 208.811015 -0.5142649
C 93.5502537 209.589675 -0.476218053
C 93.5612208 211.000092 -0.664541463
C 94.7567864 207.4036 -0.446685097
C 94.7545755 208.83204 -0.483016927
C 96.0142381 209.559589 -0.575789028
C 95.9762957 211.007046 -0.728889885
C 97.2655996 207.3993 -0.533333445
C 97.2735149 208.82818 -0.534572197
C 98.5224459 209.525645 -0.582602853
C 98.4906759 210.97811 -0.605732216
C 99.7886222 207.374784 -0.420183135
C 99.7659667 208.851357 -0.402900933
C 101.021944 209.558113 -0.26580847
C 100.961915 210.973949 -0.205233277
C 102.264793 207.391785 -0.179986365
C 102.309534 208.783602 -0.244010495
C 103.548866 209.543899 -0.109673339
C 103.485912 211.015801 -0.0746457185
C 104.769039 207.418757 0.00846251763
C 104.823365 208.839529 0.0610137703
C 106.066144 209.590843 0.121893537
C 106.03552 211.046088 0.0520972907
C 107.265772 207.42478 0.271900506
C 107.284105 208.887752 0.247947826
C 108.532808 209.566869 0.169301228
C 108.511109 211.029564 0.0847399033
C 109.772786 207.478693 0.25084077
C 109.803012 208.892988 0.189338297
C 111.054782 209.569309 0.119587632
C 111.055617 211.024416 0.0261518556
C 112.30514 207.425423 0.00468079351
C 112.319204 208.869655 0.0499371829
C 113.545799 209.575872 0.0361963554
C 113.583679 211.025975 0.0208200648
C 114.791423 207.393836 -0.180959294
C 114.790989 208.82049 -0.108645754
C 116.028565 209.575602 -0.269484028
C 116.026482 210.993229 -0.218838712
C 117.295563 207.380568 -0.233555856
C 117.294467 208.825407 -0.324467866
C 118.516761 209.557676 -0.450487568
C 118.535543 210.98651 -0.55797167
C 119.750866 207.381196 -0.373289554
C 119.778355 208.792263 -0.423310301
C 121.004208 209.559729 -0.51500158
C 121.002007 210.990418 -0.653022845
C 122.233848 207.414709 -0.330695779
C 122.210423 208.849976 -0.430781951
C 123.460355 209.542104 -0.457636171
C 123.506675 210.938995 -0.629776217
C 124.756564 207.366302 -0.276049788
C 124.788166 208.836187 -0.37163858
C 125.99765 209.571481 -0.417355445
C 126.012755 210.962239 -0.697173416
C 127.254879 207.398599 -0.20175812
C 127.244103 208.809602 -0.277160304
C 128.527279 209.571411 -0.377095099
C 128.474828 210.983966 -0.558344926
C 129.699525 207.41512 0.000584191528
C 129.737854 208.833865 -0.164209256
C 130.949358 209.51957 -0.252694534
C 130.940859 210.937132 -0.514605614
C 132.219682 207.438848 0.0416470599
C 132.189987 208.85849 -0.177846483
C 133.455749 209.505863 -0.274763024
C 133.428596 210.972583 -0.347399278
C 134.714279 207.386163 -0.0877231012
C 134.700263 208.785456 -0.15780058
C 135.989442 209.566897 -0.14592314
C 135.921848 211.007823 -0.136600994
C 137.22095 207.370528 -0.0638222798
C 137.223598 208.841431 -0.0831388157
C 138.4509 209.545357 -0.0632827163
C 138.43059 210.977311 -0.135622728
C 139.649443 207.37745 0.0164678554
C 139.699983 208.789703 -0.0793537585
C 140.947509 209.51064 -0.115784346
C 140.898149 210.953324 -0.157239681
C 142.184911 207.316339 1.80894203e-05
C 142.162771 208.757393 -0.0863761052
C 143.416509 209.47231 -0.0649486116
C 143.450167 210.940484 -0.0678137883
C 144.677069 207.328584 0.140796144
C 144.66322 208.764405 -0.0348037639
C 145.890311 209.53446 0.0490350641
C 145.936018 210.938435 -0.031401943
C 147.159124 207.35667 0.299219363
C 147.120937 208.787692 0.197863593
C 148.398384 209.52813 0.167434597
C 148.439045 210.940099 0.0562104023
C 149.625187 207.361731 0.428474418
C 149.630716 208.812714 0.260613011
C 150.865064 209.508616 0.346223915
C 150.892943 211.002489 0.369626774
C 152.104959 207.353386 0.515458163
C 152.107834 208.808714 0.531558246
C 153.332092 209.532652 0.662424222
C 153.394045 210.961287 0.577671723
C 154.604755 207.380281 0.57172532
C 154.617083 208.840924 0.642830277
C 155.869771 209.586205 0.755669529
C 155.873476 210.988258 0.753318829
C 157.120755 207.386687 0.753497107
C 157.11262 208.847441 0.779081792
C 158.371529 209.55953 0.738977607
C 158.38539 211.025962 0.782992113
C 159.556108 207.3968 0.791629996
C 159.57897 208.843491 0.786227372
C 160.81748 209.571176 0.693762902
C 160.823888 211.03297 0.600852757
C 162.062488 207.435104 0.70513463
C 162.066432 208.897333 0.656805648
C 163.318963 209.585084 0.567630175
C 163.314579 211.022151 0.525305348
C 164.560494 207.395056 0.434843235
C 164.58914 208.818756 0.433075628
C 165.861555 209.536474 0.43583989
C 165.82945 210.996584 0.489817277
C 167.031713 207.433122 0.436019637
C 167.072081 208.839661 0.494410858
C 168.289188 209.545934 0.558760948
C 168.335727 210.949502 0.513130436
C 169.570976 207.388411 0.412926183
C 169.571461 208.840823 0.585043367
C 170.858473 209.555893 0.656189199
C 170.820746 210.993748 0.618978713
C 172.050206 207.416814 0.544695616
C 172.055583 208.870361 0.603422626
C 173.327537 209.558039 0.594119409
C 173.334179 211.005556 0.598491943
C 174.55842 207.391741 0.506081238
C 174.546694 208.847154 0.521182555
C 175.784675 209.529237 0.493093526
C 175.805431 210.942597 0.467019394
C 177.089572 207.311703 0.413212784
C 177.048824 208.774245 0.431607849
C 178.307669 209.541408 0.49381363
C 178.278459 210.986007 0.503391779
C 179.535024 207.354372 0.388579525
C 179.608857 208.821264 0.464741061
C 180.839987 209.51912 0.533667932
C 180.858943 211.002198 0.579962424
C 182.070134 207.371012 0.515895456
C 182.11711 208.821677 0.579260879
C 183.351527 209.509422 0.549374274
C 183.374855 210.976863 0.623687358
C 184.581059 207.35483 0.48392924
C 184.56138 208.788798 0.454674451
C 185.805472 209.499737 0.465494354
C 185.854666 210.945682 0.566826894
C 187.06003 207.30763 0.356237907
C 187.012022 208.746245 0.471266345
C 188.301344 209.470805 0.549620585
C 188.326954 210.906135 0.568777154
C 189.604062 207.299451 0.225974978
C 189.58593 208.767227 0.419874314
C 190.824435 209.516257 0.282588309
C 190.78657 210.96982 0.300692496
C 192.071892 207.367416 -0.0210340353
C 192.067839 208.810164 0.134876679
C 193.323286 209.531301 0.176441357
C 193.246678 210.957436 0.0727160125
C 194.563451 207.356037 0.093337799
C 194.530704 208.77054 0.170849399
C 195.813624 209.516451 0.258883541
C 195.757017 210.92404 0.157723741
C 197.055305 207.290104 0.168244756
C 197.057279 208.727613 0.28139397
C 198.295428 209.487451 0.297458019
C 198.287736 210.937063 0.201269062
C 199.546836 207.347537 0.260804265
C 199.551315 208.799116 0.265487977
C 200.79168 209.544754 0.216898154
C 200.772696 210.965774 0.142471865
C 202.020009 207.343094 0.359626956
C 202.018814 208.796393 0.320518861
C 203.287832 209.485591 0.209784866
C 203.27527 210.945069 0.139373895
C 204.528749 207.340367 0.247236452
C 204.513668 208.755152 0.241531862
C 205.740227 209.493005 0.257628164
C 205.713413 210.920522 0.245372968
C 207.000749 207.297129 0.258919446
C 207.003068 208.753779 0.316650725
C 208.24228 209.507234 0.398815607
C 208.238662 210.947899 0.362643884
C 209.477578 207.332274 0.339404373
C 209.489731 208.783381 0.37044139
C 210.753427 209.444024 0.406338679
C 210.747935 210.919786 0.474003804
C 211.996085 207.273946 0.305430736
C 212.000875 208.694998 0.364721659
C 213.24128 209.488545 0.475944643
C 213.232581 210.940872 0.535484314
C 214.490213 207.374276 0.301068147
C 214.503899 208.827286 0.453938606
C 215.757251 209.504401 0.513694307
C 215.791707 210.977593 0.585870812
C 216.99587 207.390468 0.508589121
C 217.045225 208.804107 0.577772801
C 218.280144 209.524139 0.596760773
C 218.269298 210.95974 0.603771372
C 219.503914 207.326301 0.530582038
C 219.503717 208.793587 0.492986766
C 220.702725 209.516086 0.401654464
C 220.75296 210.951354 0.439346258
C 221.953705 207.329489 0.598236577
C 221.955445 208.771569 0.387959709
C 223.169599 209.480147 0.319695434
C 223.224832 210.948241 0.224811408
C 224.429827 207.32533 0.62523468
C 224.407005 208.797312 0.47373005
C 225.695928 209.508604 0.617694873
C 225.730516 210.956793 0.4471722
C 226.917531 207.371755 0.683513976
C 226.951252 208.794104 0.659513528
C 228.223905 209.505076 0.525072656
C 228.232978 210.958378 0.370841031
C 229.448553 207.382894 0.584523343
C 229.47892 208.797803 0.58991493
C 230.729632 209.523537 0.679070793
C 230.779796 210.976559 0.595722407
C 231.985522 207.378003 0.45865647
C 231.994291 208.822024 0.560329531
C 233.265084 209.544665 0.52301801
C 233.272657 210.995039 0.544804092
C 234.49792 207.412636 0.381203191
C 234.485841 208.826667 0.405241804
C 235.714849 209.555646 0.392452452
C 235.741216 210.997456 0.496400343
C 236.927737 207.395577 0.394149347
C 236.962504 208.795973 0.331947101
C 238.194334 209.508395 0.351321421
C 238.184457 210.925345 0.357273938
C 239.494462 207.360139 0.509585107
C 239.450731 208.793775 0.354334568
C 240.742447 209.483691 0.224220283
C 240.733033 210.918607 0.227857631
C 241.980697 207.377052 0.523699383
C 241.980572 208.802794 0.400834769
C 243.212352 209.53354 0.39973619
C 243.225164 210.969951 0.322462383
C 244.461407 207.390101 0.596903914
C 244.451591 208.844472 0.481374204
C 245.699345 209.555778 0.532152868
C 245.711685 210.982838 0.41954242
C 246.935703 207.377689 0.775281693
C 246.944644 208.841092 0.742053845
C 248.22759 209.531591 0.827203348
C 248.23604 210.998911 0.666603536
C 0.0817337927 211.685286 0.668470046
C 0.035704219 213.137777 0.556174636
C 1.2818622 213.872114 0.576202757
C 1.27371122 215.266001 0.446253853
C 2.55187591 211.678627 0.751155585
C 2.5374905 213.132387 0.688436996
C 3.72937478 213.887135 0.776936728
C 3.75996397 215.299741 0.659318823
C 5.00876199 211.733721 1.03311274
C 4.99026627 213.154519 0.939155581
C 6.27231202 213.888719 0.842417872
C 6.273906 215.343399 0.647800022
C 7.50255212 211.671839 1.13389198
C 7.508166 213.153525 0.975146973
C 8.77221357 213.832099 0.877744661
C 8.79407919 215.259618 0.697321413
C 9.97739817 211.715008 1.08062386
C 9.97620635 213.100506 1.01900919
C 11.2137602 213.838083 0.898091956
C 11.2793879 215.28336 0.816900768
C 12.5080047 211.720726 0.926991593
C 12.5067072 213.123428 0.893923939
C 13.6930972 213.872089 0.861310094
C 13.7298394 215.299801 0.831153645
C 14.9767496 211.655901 1.09924769
C 14.9258539 213.120783 1.00389464
C 16.2003077 213.851892 0.97042571
C 16.2382306 215.324122 0.805063412
C 17.4371156 211.741871 1.12197697
C 17.4325486 213.125131 0.937368164
C 18.6635878 213.851308 0.708168285
C 18.6853413 215.289581 0.597541548
C 19.929404 211.710238 0.890583105
C 19.9459377 213.094441 0.683455654
C 21.1636204 213.827635 0.523207176
C 21.181737 215.255979 0.47779435
C 22.3892405 211.696239 0.701379601
C 22.4288742 213.11856 0.542525814
C 23.6092476 213.868081 0.497635699
C 23.5810841 215.285971 0.471032009
C 24.9059264 211.633454 0.644526483
C 24.8435578 213.138608 0.534983817
C 26.104438 213.785823 0.623717944
C 26.134782 215.250319 0.579765942
C 27.3778146 211.695723 0.72939039
C 27.3466712 213.107028 0.641490873
C 28.5726425 213.826312 0.560155051
C 28.5919673 215.245107 0.474946231
C 29.8725028 211.668365 0.666937184
C 29.851112 213.101865 0.599763212
C 31.1251018 213.796031 0.571866519
C 31.1327165 215.279061 0.422625105
C 32.3763835 211.684348 0.742284595
C 32.3849039 213.108162 0.727948734
C 33.5701959 213.8574 0.696629861
C 33.6293204 215.27076 0.491935639
C 34.8438621 211.690824 0.695850587
C 34.7746712 213.147886 0.590273222
C 36.0452225 213.823242 0.497565631
C 36.0790498 215.299654 0.421900646
C 37.3866155 211.668114 0.586278105
C 37.3392921 213.067839 0.526163758
C 38.5808446 213.827014 0.586057498
C 38.5908743 215.31185 0.521761395
C 39.8170327 211.665653 0.670625309
C 39.8408766 213.087674 0.655837172
C 41.0904015 213.87827 0.600498514
C 41.082486 215.306592 0.591360604
C 42.3204432 211.649782 0.794456493
C 42.3067316 213.124003 0.684495871
C 43.5964402 213.82985 0.672415012
C 43.5974919 215.281764 0.697076007
C 44.8478092 211.660349 0.815355499
C 44.8521875 213.138028 0.709485125
C 46.0891292 213.856722 0.727108384
C 46.1124339 215.281119 0.729019747
C 47.3425805 211.664762 0.684019936
C 47.3050684 213.105241 0.725151889
C 48.5925819 213.862566 0.77939107
C 48.6225172 215.311094 0.90877934
C 49.8144757 211.720633 0.589379685
C 49.8412633 213.137314 0.730539562
C 51.0445602 213.906216 0.775266485
C 51.0595405 215.333309 0.86461114
C 52.349803 211.711102 0.658224027
C 52.3103281 213.173253 0.604385014
C 53.5650996 213.893143 0.515672964
C 53.5218526 215.355729 0.605690016
C 54.7971505 211.732473 0.609013246
C 54.8314228 213.188822 0.469025136
C 56.0650488 213.959578 0.36070531
C 56.0455735 215.370272 0.376704925
C 57.310255 211.734684 0.347700838
C 57.2932552 213.21309 0.332098672
C 58.5173623 213.906688 0.287223745
C 58.5489073 215.420727 0.244460314
C 59.7839431 211.759641 0.383687616
C 59.7320377 213.182247 0.230619605
C 61.0537578 213.91368 0.157232724
C 61.051095 215.365104 0.310957766
C 62.2948811 211.769803 0.369303208
C 62.2779398 213.212881 0.220810908
C 63.5141062 213.952447 0.0701930696
C 63.5283722 215.388289 0.0996520013
C 64.7671406 211.773104 0.119618674
C 64.770237 213.227085 -0.028129021
C 66.0071266 213.892093 -0.147709217
C 66.0044012 215.34237 -0.120583353
C 67.306832 211.74169 -0.0637085308
C 67.2677488 213.174526 -0.183173077
C 68.4987186 213.943891 -0.259037354
C 68.5264002 215.363205 -0.244624278
C 69.7941288 211.752945 -0.250805519
C 69.7629233 213.208972 -0.266844065
C 71.0368009 213.936867 -0.398490145
C 70.9898564 215.376567 -0.380236655
C 72.2892638 211.749956 -0.412400271
C 72.310414 213.225787 -0.512136763
C 73.5327347 213.948616 -0.610490138
C 73.5605975 215.33535 -0.683036102
C 74.778322 211.734871 -0.610910118
C 74.7766917 213.150875 -0.695167249
C 76.0437692 213.895536 -0.848904603
C 75.9966374 215.369068 -0.780844576
C 77.2324518 211.730711 -0.841090905
C 77.2414118 213.153305 -0.962639896
C 78.4874221 213.931929 -1.03325606
C 78.4795038 215.30316 -0.948569007
C 79.7628845 211.709672 -1.00029717
C 79.7720266 213.171846 -1.10930321
C 80.9950058 213.890284 -1.27812177
C 81.0321369 215.329933 -1.20199891
C 82.2105686 211.6855 -1.1316848
C 82.2368679 213.14171 -1.26312125
C 83.5381409 213.800607 -1.22533191
C 83.5193882 215.300198 -1.27590005
C 84.732273 211.700633 -0.943886202
C 84.7992474 213.119566 -1.15661731
C 86.0260495 213.852971 -1.11340803
C 86.0741134 215.295689 -1.16633475
C 87.2372944 211.669296 -0.84893082
C 87.254648 213.13589 -1.0266685
C 88.5248191 213.83411 -1.03342099
C 88.4878359 215.308523 -1.07650159
C 89.7604442 211.713094 -0.814566045
C 89.7690043 213.136754 -0.994580414
C 91.0363634 213.810177 -0.996552878
C 90.9800366 215.267689 -0.958408397
C 92.3097631 211.697645 -0.79860639
C 92.2806581 213.130061 -0.879072804
C 93.5204017 213.862272 -0.86252224
C 93.4618592 215.285406 -0.984894784
C 94.748318 211.725785 -0.765875431
C 94.7647257 213.148473 -0.770884908
C 96.0118073 213.878458 -0.814349727
C 95.9820994 215.341492 -0.881422593
C 97.2397583 211.707725 -0.749447564
C 97.2307843 213.144201 -0.744084384
C 98.4884062 213.871505 -0.596542931
C 98.4766028 215.329626 -0.683447206
C 99.7479091 211.697859 -0.433681035
C 99.7252365 213.13984 -0.342094406
C 100.958457 213.912639 -0.229142634
C 100.972688 215.340791 -0.348403498
C 102.250556 211.70218 -0.144741811
C 102.234645 213.16271 -0.0983132891
C 103.489147 213.889339 -0.0410054051
C 103.488901 215.336281 -0.215832335
C 104.768541 211.708597 -0.0610504901
C 104.73941 213.194561 -0.0439933629
C 105.97508 213.906332 -0.159385353
C 105.962633 215.340475 -0.264615915
C 107.250872 211.757466 -0.00991466932
C 107.276315 213.179413 -0.159904393
C 108.511363 213.868696 -0.173267907
C 108.459413 215.310787 -0.206340787
C 109.781006 211.678418 -0.0135281075
C 109.776317 213.140834 -0.164165336
C 111.038712 213.862648 -0.141152951
C 111.035081 215.277966 -0.238828034
C 112.265821 211.725881 0.0390959608
C 112.318356 213.164101 -0.0971525095
C 113.54954 213.868934 -0.2005742
C 113.509992 215.330233 -0.306070392
C 114.799563 211.752214 -0.138370256
C 114.808964 213.181499 -0.223152874
C 116.057547 213.903988 -0.442086821
C 116.029739 215.315288 -0.564703459
C 117.276211 211.717966 -0.421637069
C 117.269836 213.196391 -0.549525063
C 118.502921 213.879994 -0.75339519
C 118.484092 215.278101 -0.813922794
C 119.762103 211.705837 -0.688456241
C 119.751014 213.138063 -0.748174328
C 121.026762 213.816858 -0.783060157
C 120.980674 215.240344 -0.853146911
C 122.272392 211.695986 -0.732178791
C 122.268956 213.121841 -0.804133959
C 123.540699 213.768347 -0.757078376
C 123.517227 215.192438 -0.727349744
C 124.759288 211.60876 -0.748983439
C 124.808339 213.061942 -0.757789773
C 126.038893 213.833702 -0.803590579
C 125.9942 215.274238 -0.775014415
C 127.211429 211.680674 -0.672416865
C 127.265685 213.107707 -0.840647076
C 128.500375 213.785937 -0.846928092
C 128.488016 215.215657 -1.00295088
C 129.739851 211.639669 -0.646653914
C 129.755981 213.101289 -0.78076662
C 131.017074 213.821978 -0.787374753
C 130.964838 215.25884 -0.801416948
C 132.181319 211.665665 -0.487143871
C 132.221611 213.090319 -0.625761587
C 133.482424 213.822002 -0.547504066
C 133.474495 215.283298 -0.683694903
C 134.692302 211.711535 -0.151279248
C 134.695303 213.141064 -0.385125523
C 135.955677 213.814521 -0.415153211
C 135.946471 215.270829 -0.603413286
C 137.170038 211.730359 -0.060194079
C 137.14109 213.14146 -0.182635826
C 138.460417 213.879885 -0.135502356
C 138.448942 215.320393 -0.332908424
C 139.677413 211.678643 -0.267681811
C 139.70891 213.09754 -0.256334252
C 140.924381 213.840135 -0.312627939
C 140.901714 215.290309 -0.299035965
C 142.185999 211.608113 -0.097080459
C 142.159435 213.089736 -0.190720412
C 143.425173 213.8025 -0.177357003
C 143.436495 215.238788 -0.229856452
C 144.709106 211.678049 -0.116241836
C 144.692218 213.120936 -0.16287949
C 145.933098 213.878022 -0.135378031
C 145.96638 215.273956 -0.175396506
C 147.166444 211.668013 0.069321412
C 147.220984 213.137896 -0.040480679
C 148.471559 213.855036 -0.0204015549
C 148.420004 215.278095 -0.0610067409
C 149.678373 211.701907 0.219225352
C 149.67308 213.126283 0.0664993052
C 150.959954 213.832538 0.0844293124
C 150.93663 215.257083 -0.0108949403
C 152.169281 211.69398 0.382768246
C 152.200859 213.134723 0.269364611
C 153.393907 213.888374 0.335674193
C 153.377544 215.272971 0.232738629
C 154.629543 211.667498 0.624771796
C 154.660197 213.180159 0.553177702
C 155.882021 213.944636 0.601816651
C 155.898096 215.360885 0.399541145
C 157.136189 211.770862 0.722258439
C 157.09472 213.22191 0.639161366
C 158.390105 213.924411 0.485345124
C 158.390785 215.352037 0.298447399
C 159.605553 211.735286 0.655840516
C 159.625546 213.154156 0.522719257
C 160.84539 213.869889 0.47085933
C 160.841572 215.330142 0.4529026
C 162.092456 211.735427 0.490528828
C 162.146869 213.180173 0.503076255
C 163.372603 213.910371 0.492436794
C 163.384989 215.326758 0.519295839
C 164.593416 211.717722 0.483781944
C 164.590491 213.185836 0.471672351
C 165.796706 213.861811 0.590775969
C 165.875985 215.30734 0.694139794
C 167.092548 211.719878 0.468312409
C 167.07096 213.160413 0.512177547
C 168.309553 213.856883 0.549714133
C 168.362108 215.312914 0.532147104
C 169.575758 211.701924 0.554725201
C 169.568748 213.127015 0.430071706
C 170.817103 213.836665 0.38764592
C 170.823548 215.312762 0.37889963
C 172.045161 211.68982 0.577860459
C 172.0984 213.137749 0.509970619
C 173.333175 213.886535 0.460362421
C 173.320333 215.319001 0.501728867
C 174.542507 211.70067 0.604486379
C 174.566193 213.136368 0.510907539
C 175.854244 213.855467 0.460994673
C 175.868048 215.319967 0.57212835
C 177.04567 211.687082 0.387292041
C 177.087371 213.099569 0.445414262
C 178.299732 213.82608 0.656045992
C 178.27084 215.270512 0.838969017
C 179.573169 211.71923 0.586977998
C 179.539192 213.121686 0.717858219
C 180.808765 213.811054 0.873470023
C 180.829536 215.286097 0.876579551
C 182.100091 211.691005 0.718975037
C 182.05249 213.130644 0.882459292
C 183.335474 213.863533 0.745790908
C 183.351277 215.305756 0.809183942
C 184.610225 211.688607 0.677309612
C 184.548421 213.161252 0.656879474
C 185.838059 213.860267 0.528657587
C 185.831188 215.294379 0.507083329
C 187.120704 211.644871 0.585307053
C 187.067741 213.098895 0.455212538
C 188.279335 213.863291 0.323316504
C 188.243642 215.242606 0.261859312
C 189.534224 211.669054 0.401950268
C 189.51503 213.11013 0.256999958
C 190.726873 213.781532 0.109062976
C 190.722155 215.249045 0.0733945251
C 191.983067 211.66827 0.0890804615
C 191.982477 213.095391 0.0138161854
C 193.253473 213.788855 -0.0161960989
C 193.254065 215.281307 -0.100840478
C 194.514505 211.654068 0.0642319574
C 194.496522 213.091846 0.0305816665
C 195.765963 213.843149 0.0481208643
C 195.710883 215.292378 -0.0670324262
C 197.022678 211.656117 0.145868134
C 196.984707 213.101182 0.0759975231
C 198.209335 213.88156 0.131123167
C 198.192297 215.31849 0.0946815924
C 199.525992 211.661656 0.138874553
C 199.487858 213.158422 0.0826974094
C 200.729674 213.8486 -0.0290172834
C 200.765508 215.308731 -0.0291835521
C 202.000785 211.690897 0.0587537688
C 201.997795 213.13863 -0.0445014574
C 203.228791 213.883156 -0.0570744747
C 203.259835 215.288454 -0.147978914
C 204.488214 211.693962 0.188664247
C 204.487405 213.091204 0.0941876799
C 205.74803 213.808898 0.014479345
C 205.758768 215.258082 -0.0273012728
C 207.005921 211.638098 0.23361781
C 207.028013 213.080674 0.0802842607
C 208.268387 213.866647 0.180138101
C 208.226394 215.327045 0.141573871
C 209.511123 211.645404 0.448905545
C 209.495191 213.074814 0.3775646
C 210.728566 213.863015 0.431487733
C 210.70825 215.319113 0.326186033
C 212.009878 211.712992 0.54318503
C 211.991462 213.12305 0.46744249
C 213.217141 213.859381 0.426311088
C 213.185922 215.262287 0.306552347
C 214.54969 211.675444 0.510827985
C 214.486639 213.16743 0.49039311
C 215.735509 213.85685 0.502015284
C 215.735675 215.259672 0.389172263
C 217.041887 211.682476 0.629492215
C 217.000145 213.111103 0.54116417
C 218.24431 213.809741 0.424712976
C 218.240565 215.253437 0.309494013
C 219.497325 211.709442 0.559231055
C 219.51857 213.142774 0.501472352
C 220.73188 213.867267 0.305028541
C 220.708927 215.275051 0.183406656
C 222.003668 211.698507 0.28997589
C 222.000028 213.146376 0.315897664
C 223.241227 213.851729 0.229024328
C 223.218844 215.303171 0.102729207
C 224.449056 211.643444 0.299795232
C 224.467064 213.084673 0.235117745
C 225.665828 213.845717 0.17794801
C 225.67079 215.288167 0.107561363
C 226.945408 211.688396 0.312231355
C 226.917156 213.125189 0.206095301
C 228.183644 213.884845 0.292755224
C 228.135525 215.303082 0.152807659
C 229.485858 211.683877 0.416257229
C 229.472462 213.186725 0.459510986
C 230.719095 213.874682 0.470178382
C 230.642451 215.329684 0.349589287
C 232.026679 211.715311 0.557375393
C 231.976068 213.11441 0.485474638
C 233.228658 213.905287 0.367612097
C 233.164883 215.307606 0.440205613
C 234.506559 211.727058 0.518918319
C 234.445124 213.121522 0.420239764
C 235.707099 213.874929 0.46439235
C 235.62733 215.312234 0.411804836
C 236.957674 211.703454 0.465509384
C 236.946524 213.121675 0.496420489
C 238.172252 213.847914 0.345422796
C 238.159473 215.280217 0.248854555
C 239.449632 211.63984 0.323801727
C 239.451711 213.141953 0.258420521
C 240.745859 213.857509 0.129996525
C 240.701577 215.29821 0.0645192172
C 241.940608 211.655999 0.205345899
C 241.93163 213.087842 0.16870014
C 243.187918 213.811059 0.201489012
C 243.195659 215.275949 0.0358055359
C 244.47032 211.688738 0.347817623
C 244.467525 213.137839 0.270220948
C 245.714537 213.843388 0.168764118
C 245.706162 215.299901 0.00461277675
C 247.016098 211.674417 0.402207623
C 246.992867 213.08565 0.249393584
C 248.198772 213.897114 0.348439329
C 248.216237 215.285747 0.169228873
C 0.0123333122 216.04191 0.252426156
C 249.399036 217.461149 0.195671834
C 1.2173856 218.172316 0.226887794
C 1.29169756 219.638009 0.0215690319
C 2.51558896 216.022433 0.543647706
C 2.47792651 217.459122 0.312149956
C 3.70565646 218.200127 0.170242859
C 3.73178415 219.658062 0.0539079675
C 4.99605043 216.082115 0.563394298
C 5.00714915 217.510398 0.347744816
C 6.23858524 218.216026 0.231721424
C 6.24862002 219.629661 0.113061953
C 7.51842577 216.025528 0.504981963
C 7.47666582 217.469753 0.380355066
C 8.76681826 218.147274 0.429713858
C 8.77530662 219.621252 0.379911682
C 10.0508316 216.043494 0.657819488
C 10.0229981 217.453529 0.532332347
C 11.2883763 218.166544 0.542166419
C 11.2827976 219.587973 0.614445337
C 12.528084 216.019364 0.819597167
C 12.5203589 217.469379 0.69374462
C 13.7338106 218.194327 0.783174627
C 13.71137 219.650274 0.751276257
C 14.9872685 216.045857 0.832427666
C 14.9940109 217.475619 0.769652123
C 16.2569243 218.157558 0.643970759
C 16.2188402 219.614505 0.718175178
C 17.4726187 216.045311 0.658515747
C 17.4512508 217.476207 0.59676753
C 18.7093337 218.206332 0.525488068
C 18.7023842 219.631284 0.483513539
C 19.9281992 216.010271 0.539761008
C 19.946175 217.448813 0.548040943
C 21.1454195 218.17732 0.451994315
C 21.1661034 219.597346 0.449240566
C 22.3671953 215.980131 0.3797926
C 22.3842218 217.415431 0.385374706
C 23.6147103 218.109857 0.475767396
C 23.6310213 219.5562 0.332354246
C 24.8714155 215.967636 0.610914936
C 24.8953725 217.436287 0.57238947
C 26.1361386 218.164501 0.44728577
C 26.1151085 219.578831 0.261431102
C 27.3447674 215.958315 0.506433556
C 27.3508115 217.425075 0.489600967
C 28.6129765 218.119384 0.389618793
C 28.6288737 219.533828 0.243909458
C 29.8548089 215.972009 0.380952903
C 29.8611867 217.401422 0.315891458
C 31.0961774 218.118891 0.247474335
C 31.0928255 219.531556 0.196329806
C 32.3696104 215.979849 0.336746547
C 32.3569491 217.436204 0.254636382
C 33.623437 218.154811 0.29032247
C 33.6584513 219.611882 0.187288804
C 34.8771935 215.9869 0.442956867
C 34.8580595 217.426045 0.305285242
C 36.103986 218.130606 0.282113796
C 36.116367 219.628346 0.238849001
C 37.3355912 215.96907 0.529198962
C 37.354221 217.407825 0.477362436
C 38.6145913 218.171524 0.41941989
C 38.5817463 219.605526 0.315842198
C 39.8126404 216.018611 0.533920872
C 39.8618878 217.445623 0.450707523
C 41.0842045 218.148852 0.499489178
C 41.0957612 219.592841 0.502847817
C 42.3534508 215.993708 0.606863854
C 42.2993902 217.454385 0.582791968
C 43.6178532 218.194609 0.669625863
C 43.5361014 219.635023 0.616946307
C 44.8485901 216.014111 0.707355034
C 44.8448346 217.438885 0.654415417
C 46.1032274 218.153827 0.663833176
C 46.1062382 219.577302 0.666514236
C 47.3446378 216.000739 0.846977742
C 47.3613188 217.457312 0.716823819
C 48.6127915 218.200739 0.632113223
C 48.5755495 219.670537 0.620596175
C 49.8520288 216.042811 0.902525538
C 49.8354153 217.468766 0.759820326
C 51.0373859 218.25007 0.72745188
C 51.065491 219.695446 0.640799093
C 52.2571642 216.049293 0.7557747
C 52.2607188 217.512063 0.77315899
C 53.5484725 218.231673 0.657026167
C 53.5514736 219.662133 0.560490701
C 54.7728343 216.086946 0.568025503
C 54.782641 217.52786 0.617460678
C 56.0674728 218.255424 0.511044515
C 56.1420661 219.687482 0.48077277
C 57.2757874 216.097527 0.298964112
C 57.2964467 217.522695 0.393497177
C 58.5647236 218.241402 0.417543921
C 58.6342208 219.726678 0.492999644
C 59.7917603 216.115348 0.237989524
C 59.8097167 217.527786 0.275659583
C 61.056364 218.263076 0.24790695
C 61.1063358 219.652269 0.38495702
C 62.2731626 216.100063 0.317190973
C 62.2622932 217.560483 0.268324602
C 63.5536413 218.250068 0.232393477
C 63.5829914 219.664224 0.233259231
C 64.7523012 216.073206 -0.011595888
C 64.7866035 217.504357 0.0873753062
C 66.028453 218.214114 0.00722506968
C 66.0149007 219.705946 -0.0661672601
C 67.2707861 216.072487 -0.199554825
C 67.2806209 217.503811 -0.10687949
C 68.5324051 218.258355 -0.198635973
C 68.5311052 219.673182 -0.208003992
C 69.741899 216.082258 -0.284730788
C 69.7870027 217.527451 -0.238224143
C 71.0595014 218.195167 -0.28864993
C 71.0130058 219.67725 -0.334758259
C 72.2820463 216.061548 -0.503753744
C 72.2931958 217.533616 -0.441581129
C 73.525754 218.271869 -0.61475215
C 73.496253 219.689424 -0.639212139
C 74.7585154 216.108106 -0.694719116
C 74.7420475 217.56848 -0.663014939
C 76.0121191 218.245462 -0.74554082
C 76.0426953 219.711411 -0.845548679
C 77.2625918 216.097266 -0.821162482
C 77.3265693 217.528492 -0.751266605
C 78.6121558 218.179824 -0.818084602
C 78.5314703 219.60505 -0.867681708
C 79.780739 216.045315 -1.01857366
C 79.8494115 217.450618 -0.989881689
C 81.0447145 218.158909 -1.11187011
C 81.034253 219.608683 -1.08773737
C 82.2469779 216.003404 -1.26582832
C 82.2696661 217.427779 -1.18248949
C 83.4811483 218.211608 -1.21335192
C 83.5117873 219.662331 -1.19007605
C 84.8324075 216.028106 -1.30145939
C 84.7531915 217.519924 -1.23138356
C 86.0006269 218.225372 -1.27291747
C 86.0147893 219.656297 -1.22458366
C 87.2894097 216.001522 -1.14496549
C 87.2204707 217.461067 -1.14569122
C 88.4897138 218.15404 -1.08684602
C 88.4505711 219.593785 -0.997355219
C 89.768743 215.990532 -0.997282448
C 89.7150766 217.414266 -1.05831362
C 90.9762843 218.157096 -0.988305075
C 90.9656944 219.567837 -0.861276904
C 92.2513618 215.986393 -1.02490558
C 92.2271849 217.431884 -0.899460465
C 93.4674041 218.168565 -0.773097806
C 93.4524855 219.645475 -0.763574781
C 94.7065468 215.987376 -0.930460351
C 94.7601981 217.487656 -0.860965174
C 95.9860041 218.186034 -0.712319364
C 95.960748 219.626413 -0.700230687
C 97.2275246 216.029389 -0.825974683
C 97.2623253 217.486285 -0.762789571
C 98.4500304 218.20147 -0.673324781
C 98.4394669 219.619846 -0.747100457
C 99.7060278 216.038097 -0.479927771
C 99.703463 217.453587 -0.554764785
C 100.958353 218.12311 -0.550295563
C 100.96498 219.568285 -0.685678571
C 102.264592 215.997583 -0.37559269
C 102.221065 217.416052 -0.462625121
C 103.46437 218.198739 -0.545670061
C 103.439173 219.585119 -0.733980628
C 104.726702 216.006081 -0.346033562
C 104.714296 217.448697 -0.5258289
C 105.996375 218.144269 -0.718878857
C 105.999716 219.603255 -0.913483392
C 107.188004 216.074216 -0.286088488
C 107.218411 217.463436 -0.474131383
C 108.527758 218.201998 -0.530165898
C 108.490621 219.655891 -0.715533502
C 109.739449 216.006617 -0.339460421
C 109.776045 217.411151 -0.433321243
C 111.002327 218.146106 -0.487895449
C 111.01403 219.570127 -0.699483106
C 112.273918 216.017787 -0.382344837
C 112.267591 217.451867 -0.453411319
C 113.533109 218.210336 -0.549033764
C 113.478463 219.594117 -0.562208493
C 114.779955 215.999083 -0.485243432
C 114.767969 217.472835 -0.563783246
C 115.989091 218.203825 -0.637060879
C 115.930984 219.629798 -0.622880915
C 117.220569 216.044937 -0.766653629
C 117.230856 217.481079 -0.751177466
C 118.507989 218.163523 -0.732934763
C 118.455633 219.588141 -0.699423293
C 119.713006 215.993866 -0.811113562
C 119.715844 217.445959 -0.805277562
C 120.978766 218.113369 -0.799274423
C 120.984529 219.540611 -0.795391483
C 122.276882 215.934484 -0.808885827
C 122.212627 217.371439 -0.775040454
C 123.456065 218.14186 -0.748269767
C 123.447166 219.556751 -0.765450004
C 124.745311 215.990209 -0.727752828
C 124.739367 217.458807 -0.747363808
C 125.959637 218.161454 -0.839752493
C 125.977683 219.60664 -0.836043223
C 127.243563 215.950846 -0.956392318
C 127.211925 217.400751 -0.915495058
C 128.434892 218.135992 -0.908348185
C 128.494987 219.580332 -0.866036925
C 129.699436 215.959182 -0.960880787
C 129.711744 217.417065 -0.970484468
C 130.952606 218.124181 -0.941613589
C 130.989433 219.583438 -0.933342829
C 132.262593 215.991497 -0.783297987
C 132.249077 217.431652 -0.916220274
C 133.46144 218.148933 -0.856329788
C 133.484462 219.548767 -0.990228527
C 134.719271 216.002206 -0.726362593
C 134.7144 217.417764 -0.741716398
C 135.933562 218.151091 -0.738862057
C 135.941795 219.593925 -0.82534927
C 137.217881 216.016222 -0.550246828
C 137.210091 217.40592 -0.656366311
C 138.481679 218.1683 -0.627391509
C 138.454165 219.616116 -0.643084316
C 139.670855 216.007728 -0.30551995
C 139.686097 217.435258 -0.422920432
C 140.892176 218.202381 -0.343349307
C 140.905452 219.676261 -0.48821852
C 142.187249 216.060883 -0.226732994
C 142.136374 217.501015 -0.273016755
C 143.416886 218.201991 -0.308294684
C 143.401571 219.611371 -0.539036968
C 144.683349 215.987195 -0.226652512
C 144.660041 217.458496 -0.21907117
C 145.913433 218.160038 -0.170111885
C 145.913692 219.597876 -0.38954045
C 147.185543 215.998576 -0.0983672736
C 147.185677 217.457458 -0.0783885182
C 148.464495 218.166091 -0.188043894
C 148.406554 219.575375 -0.362200392
C 149.680646 215.976527 -0.217828719
C 149.712975 217.425073 -0.179606324
C 150.949189 218.208266 -0.206965609
C 150.964533 219.60488 -0.379920622
C 152.136475 216.001052 0.0348014233
C 152.168915 217.47296 -0.0403871907
C 153.418036 218.145099 -0.106215839
C 153.466522 219.595096 -0.236760602
C 154.638623 216.052635 0.26200073
C 154.649902 217.473347 0.0539114023
C 155.88041 218.203196 0.0397758671
C 155.928077 219.601428 -0.106999425
C 157.148839 216.010962 0.280933845
C 157.146265 217.456225 0.132628993
C 158.397086 218.181286 0.146103187
C 158.378527 219.623298 0.0224808304
C 159.62219 216.026324 0.315785332
C 159.641288 217.484348 0.30045323
C 160.902676 218.214624 0.371119124
C 160.881092 219.639522 0.314313135
C 162.148212 216.020855 0.440572515
C 162.133908 217.484999 0.394289811
C 163.403608 218.225714 0.414219755
C 163.418653 219.639316 0.400602439
C 164.638004 216.04441 0.615494383
C 164.627642 217.474704 0.514773746
C 165.858347 218.209785 0.498861821
C 165.87234 219.594501 0.447006959
C 167.13655 216.018459 0.626966396
C 167.104168 217.452029 0.506789578
C 168.307511 218.198154 0.433871838
C 168.312406 219.600846 0.349858319
C 169.579464 216.035809 0.422925481
C 169.551266 217.479582 0.478577692
C 170.8513 218.13658 0.455052244
C 170.826268 219.585306 0.383881029
C 172.05991 216.019106 0.393600579
C 172.090745 217.428192 0.424254795
C 173.321848 218.179158 0.418927198
C 173.322814 219.611502 0.427457396
C 174.585289 216.036147 0.482896878
C 174.56252 217.436739 0.428004676
C 175.861253 218.151778 0.459049553
C 175.900693 219.607776 0.441302784
C 177.099955 216.026664 0.712904152
C 177.099822 217.428101 0.59162781
C 178.352013 218.151071 0.715861132
C 178.379446 219.633376 0.539734656
C 179.579441 215.996898 0.873231181
C 179.605632 217.489537 0.74474069
C 180.811228 218.184712 0.729381474
C 180.808365 219.625568 0.633308074
C 182.087996 216.005901 0.819616361
C 182.07283 217.413031 0.686509861
C 183.299264 218.230206 0.517940728
C 183.289476 219.645525 0.586761595
C 184.574785 216.017567 0.65770169
C 184.568162 217.474905 0.538207833
C 185.828114 218.180562 0.568595313
C 185.794853 219.604249 0.566048506
C 187.077818 215.991478 0.429100533
C 187.048567 217.45691 0.59443912
C 188.273081 218.173661 0.44833864
C 188.273725 219.575768 0.39080383
C 189.47947 216.006294 0.278953655
C 189.486755 217.492669 0.313892897
C 190.741647 218.182297 0.16840351
C 190.763438 219.596424 0.141500664
C 191.982561 215.9898 0.0205403592
C 192.006059 217.407804 0.0357271743
C 193.231857 218.118854 0.012629172
C 193.230556 219.589415 -0.00735268681
C 194.462415 216.009755 -0.0966848184
C 194.494585 217.41225 -0.0522554868
C 195.687656 218.106941 -0.0136027369
C 195.730441 219.541251 -0.0692589731
C 196.958887 215.985059 0.006329049
C 196.939301 217.394985 0.00693394822
C 198.24252 218.109957 -0.125930474
C 198.169684 219.567461 -0.207769192
C 199.49391 215.991052 0.0346839175
C 199.488897 217.420997 -0.118163182
C 200.700385 218.128627 -0.212138235
C 200.689943 219.59792 -0.331417708
C 201.97055 216.052315 -0.131430432
C 201.967874 217.458575 -0.140202145
C 203.205296 218.155554 -0.201249591
C 203.244915 219.58295 -0.352464729
C 204.470711 216.051922 -0.123143572
C 204.454639 217.496941 -0.162376112
C 205.71873 218.183934 -0.178968875
C 205.693264 219.592846 -0.322184961
C 207.000134 216.04674 0.041580698
C 206.983911 217.470363 -0.0778720001
C 208.246646 218.191101 -0.0538756735
C 208.196198 219.63918 -0.247163507
C 209.476228 216.044469 0.237952361
C 209.488622 217.484788 0.186415021
C 210.685335 218.23989 0.0270117902
C 210.695004 219.621134 -0.157257977
C 212.001457 216.025881 0.287830793
C 211.963814 217.488066 0.052399238
C 213.187135 218.174963 -0.0618636226
C 213.240741 219.580914 -0.20017164
C 214.458111 215.99613 0.242028874
C 214.422057 217.430268 0.0556910937
C 215.69756 218.173587 0.0420358514
C 215.7478 219.567061 -0.143888251
C 216.993341 215.951745 0.268234342
C 216.961258 217.462517 0.15591273
C 218.204408 218.186562 0.0547198227
C 218.193272 219.615151 -0.0580217
C 219.458908 216.019923 0.22335176
C 219.477911 217.424659 0.232983484
C 220.695367 218.175945 0.125057547
C 220.708191 219.619999 -0.0289415225
C 221.97108 216.000193 0.144443097
C 221.987741 217.47854 0.143123197
C 223.206472 218.173593 0.0703525767
C 223.186347 219.58219 -0.0699497768
C 224.458815 216.038475 0.0691950699
C 224.435339 217.498323 0.0280009781
C 225.698968 218.210711 -0.103531101
C 225.700518 219.593133 -0.138582142
C 226.908473 216.000205 0.0542143743
C 226.956079 217.467656 -0.0398390619
C 228.21453 218.161885 -0.00677740812
C 228.142526 219.592935 -0.0736664123
C 229.390501 216.041914 0.258180428
C 229.454629 217.445031 0.14872251
C 230.680663 218.189758 0.178426298
C 230.695189 219.645586 0.135897458
C 231.885939 215.981418 0.313233052
C 231.900366 217.409371 0.271163178
C 233.170446 218.16871 0.252840804
C 233.155948 219.587226 0.0319866974
C 234.392802 216.045166 0.416316789
C 234.403962 217.448299 0.340302859
C 235.656019 218.189646 0.134324205
C 235.697176 219.59851 -0.0948757564
C 236.913351 216.038175 0.306865622
C 236.920089 217.460259 0.15982896
C 238.179685 218.118164 -0.114299236
C 238.192106 219.559642 -0.252606634
C 239.422764 215.964839 0.104056558
C 239.465725 217.418232 -0.0429500335
C 240.727021 218.110096 -0.157267787
C 240.729499 219.563583 -0.213794686
C 241.933997 215.998741 -0.0636863325
C 241.93225 217.400416 -0.192022951
C 243.177269 218.101311 -0.236914048
C 243.189493 219.616829 -0.302191205
C 244.453259 216.001424 -0.0271977935
C 244.384002 217.444875 -0.10667056
C 245.617872 218.172693 -0.0385180324
C 245.628252 219.594847 -0.0110578914
C 246.954266 216.012156 0.0332871708
C 246.885526 217.449042 0.0154671098
C 248.122414 218.172025 0.0812438837
C 248.138997 219.608335 0.0340548487
C 249.398532 220.313782 -0.101773963
C 249.412595 221.781679 -0.328630873
C 1.23515966 222.478157 -0.29843544
C 1.24830475 223.933028 -0.202408875
C 2.52306695 220.336419 -0.0293779253
C 2.47817992 221.759394 -0.136529042
C 3.75697727 222.517941 0.023216589
C 3.74383337 223.923287 0.102691479
C 4.97092702 220.393488 0.106545277
C 5.04894694 221.814886 0.10557022
C 6.31222766 222.460069 0.0742516358
C 6.29951046 223.867362 0.0656273183
C 7.5368974 220.317506 0.156735141
C 7.5633606 221.756032 0.124930359
C 8.7695139 222.487713 0.172731554
C 8.77542727 223.913365 0.084905689
C 10.0373713 220.343023 0.527694513
C 10.01367 221.794757 0.381700705
C 11.2554511 222.513277 0.400834955
C 11.2446969 223.939399 0.128722685
C 12.4834723 220.34531 0.651756665
C 12.5267647 221.797954 0.552022217
C 13.7685609 222.543687 0.570603155
C 13.7684646 223.918564 0.28285687
C 14.997506 220.367196 0.751418
C 14.9747822 221.834253 0.708691881
C 16.1971553 222.578551 0.525865226
C 16.2027416 223.997327 0.268575805
C 17.4599606 220.370145 0.568653606
C 17.4769062 221.814619 0.528111045
C 18.6985291 222.519722 0.396959377
C 18.6807755 223.958453 0.167236886
C 19.9351201 220.298417 0.400364745
C 19.9107799 221.748912 0.332032241
C 21.1456294 222.398716 0.209298146
C 21.1512522 223.827373 0.0365205054
C 22.3837757 220.261146 0.371203896
C 22.4244388 221.739691 0.209276889
C 23.6777431 222.432158 0.148053098
C 23.6693596 223.885853 0.0817346261
C 24.8635146 220.255505 0.25129187
C 24.9473309 221.705777 0.209794057
C 26.1787202 222.453526 0.204499983
C 26.1858181 223.911109 0.0804520912
C 27.3915884 220.299288 0.186663816
C 27.4311161 221.712878 0.135848474
C 28.6745279 222.478633 0.171310372
C 28.7029046 223.894845 0.123217208
C 29.8651791 220.236471 0.13354505
C 29.8654119 221.706452 0.0633496272
C 31.1286029 222.437417 -0.0102685441
C 31.152971 223.883904 -0.0580735667
C 32.3723929 220.302613 0.169884121
C 32.357518 221.727684 0.0564730393
C 33.639125 222.431756 -0.0631893539
C 33.6435178 223.88199 -0.171376908
C 34.8968856 220.331834 0.155532611
C 34.8992889 221.737081 -0.0897656727
C 36.1542876 222.502659 -0.15807574
C 36.1081579 223.909714 -0.202962287
C 37.3455472 220.307848 0.182996007
C 37.3930061 221.748619 0.00427324433
C 38.6016434 222.493047 0.0572042945
C 38.6325052 223.943895 -0.0484025936
C 39.8423944 220.318351 0.319463342
C 39.8329337 221.802369 0.240732764
C 41.0591867 222.476034 0.29627522
C 41.0860157 223.948635 0.133232296
C 42.3517675 220.347887 0.575946847
C 42.295466 221.757116 0.460641521
C 43.5905036 222.532149 0.506711436
C 43.5595672 223.947777 0.200107644
C 44.8313885 220.338825 0.612423714
C 44.8111486 221.784529 0.504412216
C 46.0652658 222.496061 0.436194774
C 46.1021833 223.922197 0.143902566
C 47.3095189 220.359345 0.596180831
C 47.3409978 221.795736 0.522600302
C 48.5482297 222.511394 0.398661569
C 48.5567459 223.920653 0.216309953
C 49.8070306 220.416205 0.600015244
C 49.8218571 221.842422 0.512127222
C 51.0811183 222.545905 0.529701658
C 51.0883833 223.948632 0.295732785
C 52.3334122 220.405385 0.617312387
C 52.3384602 221.816488 0.564781484
C 53.5881015 222.555575 0.437730531
C 53.5998454 223.939422 0.207189253
C 54.8161344 220.349707 0.574650424
C 54.8397271 221.783786 0.540282664
C 56.0797625 222.473167 0.435983208
C 56.0578514 223.966417 0.452325027
C 57.3648812 220.412368 0.458067031
C 57.3623228 221.81569 0.415244173
C 58.5920782 222.576031 0.430221932
C 58.5871116 224.049657 0.51577642
C 59.8692789 220.410959 0.494692386
C 59.8475611 221.867508 0.445387592
C 61.0890016 222.630942 0.460737245
C 61.049836 224.084071 0.453582624
C 62.3367153 220.387014 0.397976089
C 62.3537776 221.868989 0.441310894
C 63.6015966 222.599367 0.336954324
C 63.5774854 224.046554 0.333395901
C 64.7719258 220.466049 0.00232287898
C 64.7925146 221.882599 0.0700970746
C 65.9933424 222.591609 -0.0854031361
C 66.066403 224.044908 -0.038880609
C 67.303501 220.396557 -0.128259902
C 67.2695572 221.843796 -0.136150476
C 68.5684172 222.582132 -0.172708815
C 68.5670047 224.050694 -0.135813361
C 69.7855857 220.421617 -0.266456871
C 69.7802819 221.853674 -0.259727139
C 71.0505747 222.557079 -0.336167565
C 71.0891964 223.97556 -0.290049192
C 72.2626944 220.391837 -0.471568784
C 72.2543606 221.817528 -0.436215
C 73.5119626 222.494577 -0.476500031
C 73.5398534 223.958694 -0.534815698
C 74.8034083 220.387646 -0.693044248
C 74.7895355 221.80038 -0.628184574
C 76.0557103 222.530809 -0.764134331
C 76.0296162 223.963702 -0.81443227
C 77.3073748 220.34659 -0.82516395
C 77.2465003 221.789251 -0.867241049
C 78.5288192 222.496769 -0.919659628
C 78.5880594 223.962991 -0.946457697
C 79.7691253 220.334345 -0.963083561
C 79.8002448 221.758708 -0.93158817
C 81.0336291 222.516195 -0.952104198
C 81.0328073 223.979992 -0.965363267
C 82.2805684 220.357274 -1.14775075
C 82.2470024 221.831435 -1.04115047
C 83.4844144 222.510818 -1.01957379
C 83.532685 223.953955 -1.01839288
C 84.749049 220.37442 -1.17168639
C 84.7076038 221.785335 -1.04898687
C 85.979304 222.509425 -1.01766794
C 86.052713 223.98385 -0.837996517
C 87.2386217 220.339316 -1.13167281
C 87.2321359 221.787176 -0.968598477
C 88.4724815 222.478398 -0.772450524
C 88.4634772 223.907316 -0.787747829
C 89.7106117 220.316654 -0.794457979
C 89.7008322 221.739601 -0.693041778
C 90.9525498 222.508878 -0.665471266
C 90.930623 223.939445 -0.647327623
C 92.1784861 220.295678 -0.79530622
C 92.1896684 221.790215 -0.744325752
C 93.4514467 222.52211 -0.743976783
C 93.427923 223.965854 -0.721450164
C 94.721267 220.343071 -0.741431196
C 94.7079931 221.778328 -0.695940265
C 95.9440655 222.474143 -0.647241565
C 95.9416523 223.928639 -0.633889771
C 97.1857839 220.358163 -0.678226114
C 97.1908086 221.776404 -0.651025711
C 98.4380295 222.463546 -0.671445961
C 98.4500924 223.924877 -0.686464204
C 99.7391551 220.331551 -0.745173121
C 99.6835579 221.77072 -0.713648386
C 100.966002 222.497697 -0.804808064
C 100.945095 223.926217 -0.900243476
C 102.209118 220.323773 -0.766686478
C 102.175866 221.753563 -0.865840654
C 103.456976 222.436888 -1.01928232
C 103.448244 223.893981 -1.11118007
C 104.710065 220.296464 -0.961088199
C 104.68888 221.754206 -1.09559598
C 105.924281 222.490522 -1.17068289
C 105.958787 223.898808 -1.24923935
C 107.216056 220.320298 -0.869541992
C 107.163616 221.731749 -1.10276262
C 108.428078 222.477891 -1.09661518
C 108.428933 223.876695 -1.26711406
C 109.74943 220.351342 -0.805324236
C 109.690473 221.756388 -0.980750582
C 110.968526 222.453633 -0.994897627
C 110.923879 223.878329 -1.15921865
C 112.238551 220.284496 -0.758625824
C 112.200807 221.744604 -0.847889772
C 113.444046 222.48777 -0.802303159
C 113.43281 223.88403 -0.958841411
C 114.703528 220.374047 -0.570561383
C 114.706724 221.790752 -0.704451431
C 115.985772 222.471606 -0.717155582
C 115.942648 223.878483 -0.880961507
C 117.230896 220.290076 -0.630324489
C 117.274136 221.776561 -0.633666985
C 118.496264 222.467214 -0.769782853
C 118.488414 223.880958 -0.788239559
C 119.70762 220.303501 -0.660018545
C 119.697449 221.743194 -0.718076554
C 120.919515 222.438101 -0.702112091
C 120.959939 223.923479 -0.74039258
C 122.214671 220.274046 -0.8287773
C 122.151374 221.7438 -0.872779715
C 123.428731 222.437517 -0.959650897
C 123.416603 223.908889 -0.920974188
C 124.699908 220.277721 -0.865677711
C 124.687865 221.718156 -0.91529505
C 125.968588 222.46013 -0.826705415
C 125.958613 223.906946 -0.791007903
C 127.230522 220.311705 -0.861284657
C 127.250825 221.748919 -0.780734948
C 128.455962 222.471471 -0.735562357
C 128.450723 223.909536 -0.67063668
C 129.767588 220.299845 -0.881386813
C 129.728245 221.719884 -0.876258913
C 130.973452 222.470259 -0.938019404
C 130.990367 223.950851 -0.867535598
C 132.204807 220.266851 -1.00692421
C 132.219485 221.740543 -0.985195981
C 133.452843 222.492831 -0.966076719
C 133.470569 223.900863 -1.02246129
C 134.716369 220.297233 -0.884533564
C 134.698629 221.743001 -0.881616383
C 135.942564 222.455857 -0.945736565
C 135.930929 223.922961 -0.950848644
C 137.206401 220.318445 -0.79456557
C 137.187968 221.793013 -0.968996776
C 138.443056 222.531188 -0.971955236
C 138.450995 223.956593 -0.982267493
C 139.706507 220.369054 -0.659036901
C 139.69072 221.781866 -0.819388265
C 140.952635 222.507842 -0.826726752
C 140.948208 223.949639 -0.892956084
C 142.139109 220.349334 -0.521334696
C 142.190766 221.804526 -0.598675139
C 143.433105 222.517021 -0.544340309
C 143.432964 223.941563 -0.601583278
C 144.668136 220.306419 -0.501905788
C 144.674263 221.752957 -0.46565552
C 145.905215 222.447256 -0.415156168
C 145.926385 223.903478 -0.46128116
C 147.161634 220.306096 -0.409335063
C 147.185419 221.744212 -0.407346415
C 148.426035 222.478068 -0.32986608
C 148.413697 223.874739 -0.332081728
C 149.656637 220.356964 -0.343319084
C 149.66017 221.797514 -0.34697737
C 150.938276 222.484909 -0.286794188
C 150.942671 223.934012 -0.32456259
C 152.187503 220.331277 -0.326396546
C 152.179369 221.777725 -0.274118066
C 153.469343 222.513034 -0.205996434
C 153.446106 223.938403 -0.321966826
C 154.687277 220.350338 -0.257547669
C 154.698805 221.791231 -0.164624126
C 155.941864 222.525948 -0.217994306
C 155.943774 223.956286 -0.334644187
C 157.15234 220.313131 -0.10365034
C 157.154393 221.754907 -0.122639887
C 158.373392 222.450303 -0.0893594419
C 158.40613 223.941466 -0.120389152
C 159.628024 220.346386 0.119883367
C 159.645012 221.756334 0.044486124
C 160.888401 222.49476 0.22284577
C 160.922885 223.950626 0.220925189
C 162.113535 220.366974 0.393212315
C 162.131394 221.776357 0.351355685
C 163.401653 222.538967 0.354615703
C 163.393472 223.974477 0.29728566
C 164.634642 220.378257 0.370224331
C 164.673175 221.796284 0.331562611
C 165.902687 222.495804 0.342452133
C 165.901066 223.955096 0.251898745
C 167.117686 220.376297 0.425789997
C 167.162655 221.809756 0.441297707
C 168.409922 222.523347 0.268607739
C 168.387438 223.941332 0.0949272211
C 169.588947 220.33649 0.296301988
C 169.660453 221.802105 0.216725446
C 170.877484 222.469055 0.0954992196
C 170.875953 223.936926 0.0258062367
C 172.076229 220.330074 0.344150653
C 172.125252 221.736377 0.189939277
C 173.364843 222.523027 0.209355533
C 173.364463 223.918251 0.185040202
C 174.609932 220.364163 0.398283123
C 174.566122 221.74344 0.260299385
C 175.800528 222.450539 0.238349871
C 175.80789 223.890792 0.167604805
C 177.130526 220.337893 0.395110229
C 177.07866 221.782466 0.330251909
C 178.283562 222.531113 0.370596004
C 178.299992 223.944471 0.189248873
C 179.609287 220.384006 0.569043614
C 179.597748 221.84056 0.407482324
C 180.858483 222.558555 0.26164898
C 180.840945 223.953142 0.0364314742
C 182.054794 220.372929 0.567728636
C 182.0507 221.82846 0.423469752
C 183.335754 222.516145 0.378733857
C 183.299392 223.947095 0.0744000255
C 184.557398 220.347474 0.542536403
C 184.558012 221.798468 0.515430475
C 185.819476 222.493755 0.372098869
C 185.819481 223.925762 0.0419845295
C 187.074293 220.314881 0.461238805
C 187.076028 221.802382 0.409414767
C 188.343809 222.48614 0.282735663
C 188.351042 223.913582 0.0229139222
C 189.525022 220.285565 0.272083286
C 189.553422 221.757284 0.197141084
C 190.770621 222.48149 -0.0973153544
C 190.778272 223.881121 -0.264527076
C 191.990327 220.318626 0.00608715704
C 191.99803 221.755689 -0.0546052105
C 193.25037 222.457021 -0.116864326
C 193.273212 223.878188 -0.37808743
C 194.44095 220.282392 -0.027989972
C 194.485351 221.740285 -0.0841984765
C 195.72768 222.449838 -0.324208499
C 195.753758 223.852608 -0.622573817
C 196.946142 220.302335 -0.194329376
C 196.932344 221.710669 -0.352691619
C 198.177326 222.432901 -0.556528528
C 198.255722 223.88486 -0.839468838
C 199.422521 220.263948 -0.380792504
C 199.437704 221.724271 -0.464524448
C 200.709185 222.469466 -0.572522116
C 200.703765 223.887218 -0.752300376
C 201.926919 220.293639 -0.439076056
C 201.941329 221.733813 -0.464591606
C 203.213973 222.416888 -0.538506524
C 203.193867 223.873491 -0.678354708
C 204.49088 220.337073 -0.440072475
C 204.487467 221.749716 -0.504229753
C 205.767976 222.508637 -0.539429488
C 205.720835 223.911536 -0.607111049
C 206.927796 220.341069 -0.321608943
C 206.992834 221.79118 -0.483099572
C 208.25485 222.474706 -0.555287591
C 208.268145 223.876359 -0.621734729
C 209.456316 220.341753 -0.335278313
C 209.461016 221.783132 -0.493603267
C 210.742919 222.437525 -0.552112775
C 210.711596 223.862237 -0.679598247
C 211.963785 220.328992 -0.262079117
C 211.975012 221.74424 -0.437544548
C 213.261604 222.438974 -0.604538804
C 213.265589 223.885846 -0.692719213
C 214.484086 220.26869 -0.27845214
C 214.448422 221.647121 -0.497263326
C 215.689037 222.450907 -0.47479686
C 215.688407 223.871852 -0.583725916
C 216.929346 220.334385 -0.157641959
C 216.944926 221.760632 -0.295337523
C 218.204991 222.471644 -0.315629066
C 218.148213 223.880676 -0.407014538
C 219.426661 220.325369 -0.139616668
C 219.45935 221.736446 -0.29126845
C 220.71943 222.476997 -0.355229504
C 220.672662 223.902794 -0.368301152
C 221.918285 220.279251 -0.138010666
C 221.971527 221.750532 -0.323817316
C 223.219529 222.471243 -0.307810977
C 223.192177 223.906395 -0.444923011
C 224.446075 220.331058 -0.139205712
C 224.424561 221.807895 -0.193223885
C 225.687261 222.494838 -0.240802945
C 225.681135 223.958578 -0.442763657
C 226.94491 220.338363 -0.14185022
C 226.939748 221.738574 -0.211744284
C 228.147108 222.484449 -0.365264888
C 228.179942 223.883533 -0.538125957
C 229.404452 220.325401 -0.136844024
C 229.35234 221.764839 -0.304062821
C 230.65319 222.489441 -0.312905412
C 230.69426 223.913421 -0.48570645
C 231.951823 220.340587 0.00687513504
C 231.917705 221.763546 -0.253008069
C 233.180966 222.491056 -0.444433384
C 233.176384 223.853637 -0.677519597
C 234.399787 220.289668 -0.16588619
C 234.421597 221.760954 -0.330489207
C 235.683343 222.468733 -0.44045828
C 235.637404 223.848175 -0.752387312
C 236.942148 220.302867 -0.250567888
C 236.940348 221.768427 -0.335667201
C 238.205419 222.415636 -0.466843839
C 238.123133 223.847428 -0.727406323
C 239.455527 220.265175 -0.321746175
C 239.423569 221.715535 -0.445575602
C 240.630658 222.432776 -0.584090352
C 240.677 223.860887 -0.781422542
C 241.946691 220.304964 -0.379435248
C 241.928182 221.738737 -0.507935432
C 243.144135 222.484308 -0.483482753
C 243.167431 223.903818 -0.652125807
C 244.421529 220.346441 -0.214649274
C 244.421716 221.780898 -0.363693136
C 245.645656 222.479822 -0.44544166
C 245.691437 223.922918 -0.685008743
C 246.913059 220.318617 -0.0376438882
C 246.942149 221.801815 -0.267947286
C 248.215894 222.500493 -0.378594254
C 248.229482 223.90031 -0.523546357
C 0.0306560398 224.65701 -0.394538446
C 249.399495 226.080684 -0.254312088
C 1.20562301 226.783277 -0.10222457
C 1.18445057 228.216933 0.0028287292
C 2.47808853 224.629473 -0.0457681875
C 2.49940954 226.054344 -0.0684843994
C 3.68535577 226.772762 0.0539824773
C 3.73872826 228.213159 0.0467266169
C 5.03255121 224.599209 0.0815472645
C 4.94273807 226.054698 0.133167191
C 6.19712413 226.769558 0.0667531732
C 6.24354363 228.205954 -0.00423074814
C 7.52710946 224.605029 0.0579021367
C 7.47963131 226.026396 -0.0401411367
C 8.72197329 226.806582 -0.157558899
C 8.69024838 228.238683 -0.187782738
C 10.0331257 224.671788 -0.042468
C 9.98120285 226.105622 -0.123241922
C 11.2483982 226.827119 -0.156575419
C 11.2389907 228.274534 -0.187983593
C 12.4764722 224.647239 0.0914896145
C 12.4529283 226.089731 -0.0651003602
C 13.7318334 226.820914 -0.0832597746
C 13.7298285 228.225537 -0.0455936428
C 14.9583634 224.651737 0.136373883
C 14.9408933 226.069721 -0.0638754265
C 16.2202396 226.744761 -0.0951381229
C 16.2157541 228.158409 -0.179028812
C 17.4220636 224.689181 0.160902253
C 17.4798196 226.08263 0.0293630077
C 18.6857807 226.763801 0.0386523093
C 18.7105855 228.196228 -0.0549543981
C 19.961945 224.601782 0.0441042425
C 19.9241621 226.036528 0.0135264818
C 21.1971442 226.758892 -0.0842667355
C 21.1602142 228.190204 -0.241693943
C 22.3803077 224.542843 -0.0116813859
C 22.4315904 225.993467 -0.110871917
C 23.7106704 226.681235 -0.20945268
C 23.6455631 228.179728 -0.316404676
C 24.9008611 224.634083 0.0416603977
C 24.961312 226.041829 -0.108524872
C 26.2120116 226.75695 -0.128238903
C 26.2084628 228.181629 -0.249224069
C 27.4423862 224.624759 0.0402097233
C 27.474512 226.040096 -0.0685042655
C 28.6689014 226.768554 -0.114997354
C 28.6550111 228.213192 -0.380609225
C 29.9031092 224.622983 -0.0566015285
C 29.9055549 226.043756 -0.13488491
C 31.145935 226.720768 -0.288027613
C 31.1593129 228.153156 -0.560680343
C 32.4279859 224.636174 -0.140418469
C 32.3693706 226.050307 -0.286435213
C 33.586964 226.728929 -0.432847841
C 33.5691119 228.165391 -0.569241738
C 34.8899567 224.601489 -0.276064057
C 34.8548592 226.070035 -0.393954416
C 36.119892 226.773545 -0.350334306
C 36.0903801 228.201727 -0.501512577
C 37.3577792 224.660081 -0.165124546
C 37.3710607 226.085973 -0.291200355
C 38.6012794 226.824506 -0.178031401
C 38.585832 228.234519 -0.32990157
C 39.8482187 224.70886 0.0300510112
C 39.8921235 226.127082 -0.0351727216
C 41.10313 226.847719 -0.122403105
C 41.0811611 228.23777 -0.207750113
C 42.3612216 224.666063 0.148437355
C 42.3258859 226.077643 0.0325630012
C 43.5968827 226.791929 -0.0764696112
C 43.5909974 228.266056 -0.155425138
C 44.8361471 224.663568 0.036483533
C 44.8086139 226.105233 -0.0148262861
C 46.0500133 226.785621 -0.0824417186
C 46.0714374 228.256265 -0.178649164
C 47.2921265 224.621353 0.177851871
C 47.3152256 226.092576 -0.0438940509
C 48.5434035 226.815596 -0.0970454113
C 48.5432414 228.268801 -0.251328604
C 49.8118537 224.6703 0.147516861
C 49.8001405 226.14479 -0.00500952515
C 51.1029253 226.826654 -0.0521237684
C 51.0875696 228.277309 -0.165429164
C 52.3262537 224.666904 0.180169502
C 52.3753874 226.122844 0.043045144
C 53.6235728 226.856333 0.10694672
C 53.602793 228.265307 -0.0720348794
C 54.8037875 224.697445 0.355076715
C 54.8501423 226.108995 0.261910853
C 56.0704585 226.86008 0.242205904
C 56.1147155 228.295798 0.227582479
C 57.2990046 224.717618 0.445141946
C 57.3169694 226.16299 0.361959051
C 58.5562046 226.910486 0.364488568
C 58.6231207 228.342819 0.279502466
C 59.8222118 224.786962 0.516702036
C 59.8494199 226.209734 0.468081734
C 61.1079173 226.948178 0.462862668
C 61.1226787 228.379037 0.318743777
C 62.3538845 224.743491 0.509873423
C 62.3494809 226.21809 0.455886568
C 63.5936633 226.906803 0.231339229
C 63.5929893 228.344664 0.141992528
C 64.8627334 224.742042 0.153524279
C 64.894808 226.170458 0.119475462
C 66.0623821 226.886708 -0.0467672961
C 66.061224 228.295236 -0.0882773215
C 67.3191965 224.731795 -0.0853231684
C 67.3234377 226.172026 -0.110283504
C 68.6021975 226.92014 -0.271319714
C 68.5819834 228.346503 -0.312885303
C 69.869428 224.723204 -0.209953196
C 69.8253534 226.186717 -0.405096096
C 71.0569531 226.8786 -0.585633891
C 71.0298755 228.295623 -0.684784354
C 72.340642 224.720775 -0.469274377
C 72.2714634 226.145893 -0.606238143
C 73.540361 226.858367 -0.789618466
C 73.5515211 228.318572 -0.86235167
C 74.7942702 224.685491 -0.709662948
C 74.7919529 226.109915 -0.914028186
C 76.0227425 226.822417 -1.02411681
C 76.0599752 228.290693 -0.993476817
C 77.3052235 224.655789 -0.963125054
C 77.2794387 226.15865 -1.06346549
C 78.5080598 226.829211 -1.07533582
C 78.49608 228.271387 -1.06493552
C 79.8187902 224.705704 -1.01616167
C 79.732009 226.146131 -1.12270381
C 81.0284074 226.796689 -1.14405991
C 81.0388441 228.250785 -1.10010156
C 82.2947462 224.627377 -0.991760528
C 82.2635731 226.062114 -1.06948036
C 83.468299 226.835074 -1.04209197
C 83.4409021 228.236112 -0.93836477
C 84.7708089 224.66526 -0.966907895
C 84.756028 226.10961 -0.97257435
C 86.0179747 226.82994 -0.829556105
C 85.9914718 228.262144 -0.724534874
C 87.2586436 224.689781 -0.8381649
C 87.2992093 226.125704 -0.789714447
C 88.511866 226.867403 -0.691111226
C 88.4612755 228.282696 -0.553290362
C 89.7061366 224.672417 -0.74504655
C 89.722947 226.140056 -0.656966896
C 90.9596894 226.868719 -0.552392944
C 90.9492511 228.312305 -0.438642824
C 92.1621573 224.658968 -0.672757455
C 92.2102933 226.128625 -0.511503215
C 93.4710778 226.79389 -0.498957087
C 93.4832082 228.283168 -0.466020735
C 94.6705681 224.671584 -0.625110664
C 94.6823252 226.120098 -0.563330787
C 95.9467555 226.823475 -0.70345119
C 95.9740277 228.295162 -0.745452958
C 97.1763169 224.703033 -0.648137882
C 97.2047869 226.125101 -0.759568661
C 98.4640169 226.802694 -0.773072465
C 98.4370765 228.247717 -0.777628874
C 99.7094522 224.656688 -0.831785447
C 99.7056465 226.105511 -0.858126797
C 100.933662 226.778429 -1.07067411
C 100.953221 228.254363 -1.03242292
C 102.220498 224.641398 -1.04809191
C 102.227755 226.068586 -1.17861975
C 103.42751 226.792399 -1.21933975
C 103.438848 228.199022 -1.18773982
C 104.697234 224.634566 -1.18103553
C 104.668914 226.048362 -1.19712645
C 105.983174 226.74349 -1.28266739
C 105.933152 228.222377 -1.23214504
C 107.179459 224.587813 -1.30362181
C 107.222524 226.017388 -1.27091504
C 108.452319 226.778249 -1.17308325
C 108.488369 228.243228 -1.17728138
C 109.692742 224.619034 -1.17513561
C 109.725856 226.084472 -1.26290352
C 111.023984 226.804632 -1.29661479
C 110.996247 228.223102 -1.23128883
C 112.178048 224.596187 -1.09331783
C 112.248094 226.037236 -1.2302971
C 113.486964 226.782834 -1.29333865
C 113.517798 228.24719 -1.26065048
C 114.703183 224.604215 -1.05046574
C 114.748725 226.079653 -1.13253344
C 116.006207 226.758793 -1.1331631
C 116.034738 228.22328 -1.19763628
C 117.195611 224.587393 -0.913781465
C 117.240675 226.021287 -1.0126537
C 118.506786 226.739375 -1.03697111
C 118.511572 228.205847 -1.01563371
C 119.728782 224.601794 -0.903219596
C 119.76194 226.037635 -1.03775572
C 121.00826 226.747756 -0.928635453
C 120.993145 228.169966 -0.870160487
C 122.207035 224.614206 -0.81574759
C 122.263935 226.075229 -0.848563181
C 123.559942 226.760541 -0.870694446
C 123.551659 228.223882 -0.813351379
C 124.70081 224.56325 -0.880293522
C 124.772756 225.999928 -0.910690437
C 125.988834 226.732799 -0.776334473
C 125.946291 228.20634 -0.694442949
C 127.200757 224.623096 -0.76221941
C 127.216935 226.058899 -0.744469022
C 128.473307 226.721329 -0.73193719
C 128.496247 228.151359 -0.751969289
C 129.704918 224.607928 -0.66099307
C 129.727738 226.036483 -0.70069564
C 130.985554 226.785373 -0.799699537
C 130.979938 228.189463 -0.886403582
C 132.218237 224.670737 -0.977754776
C 132.224933 226.099499 -0.966021107
C 133.450843 226.781806 -1.01105602
C 133.489995 228.222892 -1.01017088
C 134.690701 224.643039 -0.965713179
C 134.715496 226.088138 -0.949152311
C 135.975878 226.8113 -0.977606751
C 135.967735 228.213832 -1.05006926
C 137.173821 224.59087 -0.977213255
C 137.170112 226.073756 -0.895923332
C 138.444807 226.788914 -0.871584533
C 138.418818 228.205003 -0.966423066
C 139.665053 224.699028 -0.941963886
C 139.719646 226.119405 -0.929361633
C 140.95715 226.794114 -0.947765644
C 140.951622 228.249075 -1.00894733
C 142.208367 224.698884 -0.766797713
C 142.260224 226.119445 -0.833323432
C 143.462113 226.806127 -0.851942452
C 143.48544 228.280008 -0.849094247
C 144.661101 224.656732 -0.558345532
C 144.685156 226.062551 -0.657446892
C 145.941828 226.771013 -0.663698636
C 145.938379 228.261951 -0.717390892
C 147.175533 224.589769 -0.434981172
C 147.18706 226.068023 -0.581735379
C 148.379193 226.808921 -0.380063824
C 148.411875 228.282977 -0.490451249
C 149.672677 224.641402 -0.335348492
C 149.651993 226.117801 -0.337583954
C 150.910779 226.827889 -0.459893068
C 150.905743 228.244379 -0.481249353
C 152.178326 224.630329 -0.417087371
C 152.121868 226.07723 -0.463540646
C 153.410086 226.812298 -0.464593796
C 153.419423 228.261686 -0.470316601
C 154.699506 224.633099 -0.349185366
C 154.646424 226.078027 -0.504893749
C 155.88861 226.789678 -0.576049638
C 155.894188 228.258997 -0.428710323
C 157.200308 224.679106 -0.36380453
C 157.183267 226.12112 -0.442910459
C 158.413031 226.834388 -0.364387686
C 158.386418 228.288354 -0.195417792
C 159.662122 224.629044 -0.00699553787
C 159.676113 226.119625 -0.171185158
C 160.881885 226.857714 0.0146988876
C 160.882958 228.297506 0.0500268874
C 162.162269 224.701794 0.230970349
C 162.130576 226.132309 0.280296897
C 163.358571 226.838257 0.369653819
C 163.375533 228.268798 0.311721786
C 164.664926 224.680708 0.283781618
C 164.635366 226.12762 0.216358355
C 165.851663 226.884468 0.123829546
C 165.889668 228.313513 0.209151187
C 167.121972 224.671009 0.144032985
C 167.131474 226.141699 0.160583278
C 168.400265 226.864137 0.105182713
C 168.395967 228.331594 0.188365154
C 169.630547 224.691972 0.0638714677
C 169.625707 226.113053 0.0600376056
C 170.886005 226.809357 -0.0141734571
C 170.875931 228.278845 0.00976241344
C 172.14679 224.650453 0.0961350585
C 172.156907 226.103564 0.000702425002
C 173.375726 226.802846 -0.129092122
C 173.341454 228.229055 -0.229221989
C 174.57704 224.654875 0.0452811501
C 174.577657 226.109553 -0.112198161
C 175.821529 226.824781 -0.171554859
C 175.832014 228.249173 -0.290980439
C 177.047767 224.670102 0.144440571
C 177.03865 226.113628 0.015128371
C 178.282562 226.825678 -0.120486996
C 178.307302 228.243762 -0.385788682
C 179.583161 224.665791 -0.0154059371
C 179.538333 226.102442 -0.142663862
C 180.807793 226.822505 -0.294070115
C 180.829837 228.27272 -0.444592777
C 182.068523 224.697127 -0.0505177955
C 182.023643 226.106891 -0.203571029
C 183.23111 226.817809 -0.315368223
C 183.304134 228.228132 -0.425044662
C 184.52748 224.633765 -0.0632914573
C 184.515537 226.061128 -0.182280939
C 185.805669 226.789969 -0.303484084
C 185.814548 228.245142 -0.509994179
C 187.077081 224.646792 -0.000953768846
C 187.041399 226.070428 -0.187751224
C 188.291193 226.752694 -0.357355533
C 188.318588 228.218389 -0.498633311
C 189.566654 224.63068 -0.233372434
C 189.539532 226.041676 -0.350112096
C 190.743389 226.758586 -0.535628731
C 190.795493 228.189119 -0.706322256
C 192.028811 224.625893 -0.395253993
C 191.995238 226.048394 -0.625870623
C 193.282708 226.74738 -0.819802867
C 193.288545 228.170901 -0.837252085
C 194.503203 224.57061 -0.575521082
C 194.531726 225.984755 -0.803054887
C 195.765382 226.700693 -0.970202042
C 195.790171 228.174508 -0.954914947
C 197.018976 224.552187 -0.902576874
C 197.043286 226.020573 -1.09263201
C 198.306167 226.754274 -1.16987996
C 198.293238 228.185945 -1.22994116
C 199.490031 224.584651 -0.953401117
C 199.4982 226.040041 -1.13033508
C 200.768474 226.731487 -1.2475929
C 200.780558 228.12703 -1.350002
C 201.958755 224.557357 -0.882462534
C 202.002989 225.938532 -1.11776964
C 203.257083 226.715224 -1.19440745
C 203.269862 228.153385 -1.36474425
C 204.469144 224.625212 -0.670756953
C 204.476185 226.023236 -0.980910106
C 205.734405 226.762595 -1.11492809
C 205.774047 228.191576 -1.253804
C 207.004864 224.648398 -0.699207712
C 206.981221 226.067876 -0.946331526
C 208.227745 226.741382 -1.05674817
C 208.270003 228.166138 -1.21336394
C 209.481433 224.612936 -0.746487126
C 209.450978 226.039586 -0.928191072
C 210.750086 226.77664 -0.931733218
C 210.751063 228.241352 -1.02291113
C 211.983476 224.562565 -0.741500949
C 212.016098 226.037726 -0.901748033
C 213.240537 226.777627 -0.958697134
C 213.217561 228.239807 -0.911000578
C 214.474068 224.662549 -0.706755418
C 214.53301 226.07683 -0.817912214
C 215.729828 226.830229 -0.835713994
C 215.755375 228.251022 -0.899666565
C 216.934592 224.605985 -0.575164613
C 216.926953 226.047572 -0.749347472
C 218.171669 226.80443 -0.761883274
C 218.196194 228.226166 -0.986094134
C 219.417645 224.574091 -0.408784929
C 219.416629 226.039152 -0.635955665
C 220.698703 226.71158 -0.737643163
C 220.760841 228.186821 -0.909650868
C 221.973074 224.619582 -0.466576327
C 221.974828 226.060477 -0.643325941
C 223.20263 226.768808 -0.687705791
C 223.180432 228.17764 -0.823869665
C 224.421863 224.629451 -0.560565629
C 224.474349 226.065461 -0.702399819
C 225.70361 226.721625 -0.748757998
C 225.678583 228.184682 -0.840858099
C 226.939537 224.626856 -0.561015089
C 226.970082 226.021331 -0.71646879
C 228.21602 226.762289 -0.679100078
C 228.219522 228.218833 -0.71807641
C 229.443987 224.597382 -0.622297786
C 229.427239 226.046669 -0.704101261
C 230.669979 226.764862 -0.803463671
C 230.671751 228.203672 -0.76650318
C 231.96769 224.629854 -0.641461276
C 231.937984 226.074221 -0.784142066
C 233.175068 226.764918 -0.904592697
C 233.136324 228.215347 -0.893081268
C 234.412377 224.571119 -0.857485463
C 234.411265 226.028006 -0.952540508
C 235.644897 226.69271 -0.996096533
C 235.64035 228.161066 -0.918149852
C 236.885842 224.564968 -0.869469365
C 236.887085 225.984671 -1.00147567
C 238.146623 226.70903 -0.987473543
C 238.139875 228.163199 -1.00601311
C 239.404637 224.557399 -0.775199057
C 239.429033 226.028024 -0.864260031
C 240.67092 226.749558 -0.863028149
C 240.68449 228.184934 -0.927494342
C 241.924475 224.608424 -0.704882929
C 241.931737 226.041953 -0.764018418
C 243.177538 226.788873 -0.722964545
C 243.190319 228.244622 -0.82492881
C 244.427734 224.59417 -0.756851455
C 244.432488 226.05009 -0.765661913
C 245.745363 226.755754 -0.745944367
C 245.696311 228.201985 -0.669317105
C 246.930689 224.586442 -0.591313229
C 246.957164 226.063005 -0.590410192
C 248.173394 226.759333 -0.383165496
C 248.139347 228.218827 -0.324263821
C 249.389374 228.96026 -0.180535004
C 0.000443472528 230.37479 -0.330474149
C 1.27294048 231.107371 -0.219778842
C 1.22105995 232.544404 -0.319166764
C 2.46473516 228.917292 0.0898014394
C 2.46075764 230.321313 0.0122906401
C 3.68895104 231.025288 -0.0181276267
C 3.68188955 232.468143 -0.160094559
C 4.97197433 228.874674 0.0361207505
C 5.01632731 230.332186 -0.00816601891
C 6.22827804 231.053291 -0.0142347736
C 6.21239061 232.502461 -0.113236157
C 7.47326465 228.921214 -0.0804012043
C 7.46326489 230.348413 -0.0299990541
C 8.71733943 231.065892 -0.0814628077
C 8.69159931 232.501254 -0.164982932
C 9.97991985 228.928535 -0.239688808
C 9.98581614 230.378575 -0.236526908
C 11.236585 231.092469 -0.28320961
C 11.2598256 232.555483 -0.311581034
C 12.502928 228.968184 -0.175966999
C 12.5018078 230.411578 -0.240509224
C 13.7027362 231.091324 -0.340126506
C 13.7218436 232.530742 -0.352087333
C 15.0003875 228.916478 -0.0850099172
C 14.9982545 230.367427 -0.284884959
C 16.2701456 231.087885 -0.37375014
C 16.1905461 232.551351 -0.525856682
C 17.4684385 228.902671 -0.213769561
C 17.4888306 230.32553 -0.346123153
C 18.6840978 231.079305 -0.562675769
C 18.6654813 232.531718 -0.647207316
C 19.9424912 228.908857 -0.287517389
C 19.9410332 230.36885 -0.455674657
C 21.1778984 231.094498 -0.519405895
C 21.1769029 232.513973 -0.577463583
C 22.4075391 228.898603 -0.365369267
C 22.414757 230.317983 -0.501391893
C 23.7185713 231.023909 -0.602262528
C 23.651427 232.466965 -0.684035589
C 24.9318664 228.907627 -0.317587408
C 24.9477699 230.307143 -0.510570696
C 26.1688539 231.078811 -0.737196785
C 26.1502552 232.466764 -0.798397219
C 27.3966237 228.917139 -0.392098429
C 27.3997907 230.366655 -0.64675352
C 28.6553296 231.065575 -0.801449875
C 28.6848462 232.516514 -0.923229841
C 29.894087 228.907451 -0.61628162
C 29.8734556 230.3573 -0.761830798
C 31.1171572 231.053659 -0.762516258
C 31.1890028 232.495849 -0.864494512
C 32.3823847 228.917607 -0.628742038
C 32.4254289 230.343669 -0.714015826
C 33.6664853 231.077196 -0.827814684
C 33.6629717 232.545188 -0.950837429
C 34.8027768 228.909786 -0.596452639
C 34.8724963 230.327308 -0.731029623
C 36.1234116 231.094475 -0.726711684
C 36.1199434 232.576999 -0.739296985
C 37.3578945 228.966818 -0.449210011
C 37.3749828 230.386692 -0.594879791
C 38.5958001 231.123493 -0.534105603
C 38.6295026 232.524575 -0.630373104
C 39.8508995 228.945206 -0.301278717
C 39.852166 230.395991 -0.360853755
C 41.0896789 231.147556 -0.399917471
C 41.1245394 232.567747 -0.469605131
C 42.2970925 228.971674 -0.204802007
C 42.3162727 230.392417 -0.234944287
C 43.6239207 231.133343 -0.297325037
C 43.6279988 232.581214 -0.325074735
C 44.8308701 228.978275 -0.151208206
C 44.8386981 230.377605 -0.310973043
C 46.0965669 231.083398 -0.320585263
C 46.124504 232.547961 -0.355885839
C 47.3308754 229.009983 -0.236398222
C 47.3540016 230.423853 -0.226856633
C 48.6055084 231.143075 -0.341974502
C 48.6045611 232.566783 -0.439012667
C 49.8328518 228.97094 -0.23570303
C 49.8210815 230.438664 -0.325366931
C 51.1342646 231.14537 -0.331094466
C 51.1420745 232.5484 -0.470528837
C 52.3466284 228.981414 -0.190963277
C 52.3278245 230.410669 -0.344044217
C 53.5706205 231.140747 -0.30557233
C 53.6097569 232.571002 -0.327787185
C 54.8857036 229.001198 0.00586615772
C 54.8381848 230.489898 -0.121257221
C 56.0766221 231.179351 -0.0255495233
C 56.05607 232.607992 -0.0578695978
C 57.3266004 229.03772 0.221986214
C 57.3300751 230.495804 0.0987720176
C 58.5947755 231.213114 0.0475157859
C 58.5659987 232.637936 -0.13088991
C 59.8448539 229.030476 0.263365702
C 59.8149139 230.507254 0.202595689
C 61.0928004 231.184377 0.0734904461
C 61.0389902 232.590364 -0.19543527
C 62.3512649 229.050387 0.209827161
C 62.3286256 230.460101 0.0332385186
C 63.560959 231.193383 -0.212191042
C 63.5573078 232.596726 -0.356243511
C 64.7760313 229.011382 -0.0714356245
C 64.7704015 230.476738 -0.218977957
C 66.0234821 231.201375 -0.396391904
C 66.0609681 232.634062 -0.433940628
C 67.2901717 229.01413 -0.256182295
C 67.2857453 230.429917 -0.383375161
C 68.5100052 231.178315 -0.399638276
C 68.5570717 232.630679 -0.335305777
C 69.7906664 229.037341 -0.560652095
C 69.7876133 230.510111 -0.489446092
C 71.0463587 231.181686 -0.48571026
C 71.0616628 232.619365 -0.419933104
C 72.2994262 229.026997 -0.768823198
C 72.2976373 230.438467 -0.624150869
C 73.5647442 231.183593 -0.658985939
C 73.5328816 232.619719 -0.520157086
C 74.7988594 229.028709 -0.950206755
C 74.7774327 230.483064 -0.886352932
C 76.0327468 231.216223 -0.978888594
C 76.0362548 232.608033 -0.76481479
C 77.2526706 229.047055 -1.06536868
C 77.2781416 230.471261 -1.04025937
C 78.5462239 231.176323 -1.01065637
C 78.5283909 232.620649 -1.04339495
C 79.7692544 228.988945 -1.04711403
C 79.787149 230.450617 -1.10351577
C 81.0390775 231.150879 -1.16444072
C 81.0490608 232.582547 -1.07926041
C 82.2495421 228.983034 -1.07608192
C 82.2474807 230.417732 -1.13068879
C 83.4956627 231.110298 -1.02807437
C 83.5225883 232.630991 -1.0052129
C 84.7075403 228.987432 -0.775371853
C 84.7628563 230.451589 -0.766235749
C 86.033495 231.149711 -0.856484763
C 86.0465706 232.570076 -0.94370275
C 87.227978 228.988982 -0.606446529
C 87.2793641 230.40087 -0.792752725
C 88.5132636 231.203488 -0.840728122
C 88.5533939 232.658388 -0.88702164
C 89.7254511 229.04558 -0.49428633
C 89.7658035 230.478329 -0.671187034
C 90.9756918 231.172528 -0.653618628
C 90.9966734 232.639087 -0.68123917
C 92.1992352 229.022449 -0.46420753
C 92.2104323 230.456671 -0.594143296
C 93.4415986 231.170928 -0.543876715
C 93.4955897 232.605589 -0.644407284
C 94.7368334 229.003193 -0.565481415
C 94.7028472 230.438517 -0.583906213
C 95.9813747 231.145363 -0.719337773
C 95.9981349 232.563994 -0.809160047
C 97.2349867 228.989014 -0.746253626
C 97.207655 230.417791 -0.72726049
C 98.4632571 231.109624 -0.732751302
C 98.4947465 232.529756 -0.832452868
C 99.7025195 228.957567 -0.862830116
C 99.7366644 230.420193 -0.822033357
C 101.017532 231.128761 -0.924613293
C 100.973839 232.567508 -0.959264817
C 102.2168 228.943962 -1.07050093
C 102.233786 230.341195 -0.9804843
C 103.487367 231.104909 -0.959902726
C 103.468697 232.539029 -1.02040777
C 104.705502 228.94373 -1.23223192
C 104.73748 230.335069 -1.06598098
C 105.922551 231.135813 -1.0817577
C 106.020312 232.569297 -1.16205511
C 107.231254 228.97001 -1.20457204
C 107.210756 230.433446 -1.13122234
C 108.498952 231.130617 -1.21624177
C 108.490164 232.58408 -1.20131673
C 109.724526 228.96471 -1.22229116
C 109.765017 230.440225 -1.21644269
C 111.057487 231.182461 -1.18274137
C 111.009633 232.592524 -1.07458921
C 112.245922 228.909464 -1.18691091
C 112.229284 230.408054 -1.17179874
C 113.489116 231.109242 -1.02036427
C 113.487388 232.52398 -0.934402702
C 114.76964 228.992371 -1.18044101
C 114.758333 230.41081 -0.969498093
C 116.032425 231.101327 -0.960223449
C 116.015239 232.534935 -0.80490125
C 117.282823 228.899767 -1.08227163
C 117.238911 230.346085 -0.979180389
C 118.513195 231.062137 -0.892300411
C 118.51619 232.53909 -0.831582196
C 119.740091 228.887471 -0.863850896
C 119.720953 230.340137 -0.866237594
C 121.010933 231.059806 -0.785854826
C 120.998203 232.51516 -0.795849693
C 122.276106 228.920922 -0.861403896
C 122.252586 230.345591 -0.797479004
C 123.481023 231.12214 -0.714293231
C 123.463703 232.527148 -0.595690872
C 124.778624 228.971074 -0.766328561
C 124.774662 230.396382 -0.678625711
C 126.026997 231.068386 -0.627287845
C 125.975829 232.49988 -0.555841655
C 127.218249 228.891598 -0.792940401
C 127.253011 230.360585 -0.670635694
C 128.462721 231.079312 -0.763318334
C 128.480444 232.503975 -0.762094055
C 129.728065 228.891588 -0.846648726
C 129.725204 230.376761 -0.879823472
C 130.987472 231.037738 -0.98381858
C 130.925538 232.519259 -0.993687083
C 132.232399 228.895156 -1.05015759
C 132.214339 230.313672 -1.15717314
C 133.454787 231.059102 -1.16417284
C 133.474859 232.491016 -1.05760067
C 134.698247 228.973385 -1.07633245
C 134.708961 230.404357 -1.1657864
C 135.934504 231.140457 -1.12260912
C 135.920102 232.566824 -1.00519107
C 137.222946 228.927536 -1.09229816
C 137.183774 230.389785 -1.12274995
C 138.429956 231.090858 -1.07066009
C 138.446775 232.55893 -0.97821439
C 139.657677 228.939041 -0.968191808
C 139.661047 230.400118 -0.942415376
C 140.903951 231.108755 -0.889101107
C 140.962745 232.525483 -0.836494401
C 142.19456 228.953159 -0.935053558
C 142.22598 230.429181 -0.921490338
C 143.423213 231.153912 -0.7920275
C 143.444214 232.572162 -0.674819649
C 144.716742 229.005878 -0.755150599
C 144.695525 230.463144 -0.747936011
C 145.952212 231.173233 -0.669039769
C 145.947064 232.571999 -0.599617751
C 147.178877 229.008565 -0.642146603
C 147.208704 230.41122 -0.620529848
C 148.414216 231.141571 -0.524011262
C 148.438755 232.572403 -0.559659417
C 149.68672 228.95771 -0.473762859
C 149.640162 230.422187 -0.442911094
C 150.907766 231.15447 -0.424281311
C 150.943518 232.570751 -0.383328359
C 152.138906 228.970323 -0.453632868
C 152.146332 230.379785 -0.442469365
C 153.3562 231.148148 -0.352336651
C 153.393381 232.65154 -0.276867019
C 154.636502 228.987291 -0.414288967
C 154.617984 230.442589 -0.410751311
C 155.863964 231.18862 -0.251773975
C 155.878857 232.618786 -0.244239328
C 157.101075 228.998151 -0.269351236
C 157.089778 230.44144 -0.224832667
C 158.345839 231.142488 -0.138540166
C 158.391386 232.608621 -0.144634848
C 159.659069 229.024922 -0.0675546666
C 159.568499 230.436565 -0.0579744666
C 160.817885 231.139296 0.0328350927
C 160.885661 232.577914 0.0571792027
C 162.120975 228.978657 0.181933778
C 162.153407 230.39376 0.0893740836
C 163.418834 231.147548 0.112572755
C 163.39398 232.598824 0.159003482
C 164.63259 228.970467 0.216739693
C 164.652632 230.390449 0.23268402
C 165.901378 231.143217 0.313979834
C 165.938279 232.592006 0.227995916
C 167.147286 229.02996 0.208932307
C 167.151603 230.467096 0.326291418
C 168.42228 231.177326 0.331625151
C 168.407391 232.582364 0.297828327
C 169.659236 229.023725 0.233776211
C 169.667462 230.436353 0.338146546
C 170.894315 231.155507 0.173073803
C 170.887156 232.613965 0.139371634
C 172.092559 228.939268 -0.152047471
C 172.125278 230.367025 -0.070228373
C 173.308327 231.155317 -0.203979798
C 173.322277 232.561316 -0.0842698546
C 174.59394 228.988122 -0.376504671
C 174.577278 230.430444 -0.363496078
C 175.811112 231.131189 -0.376225387
C 175.819283 232.57828 -0.267389784
C 177.073051 228.958719 -0.414000629
C 177.072121 230.417009 -0.453690226
C 178.331612 231.120748 -0.419501344
C 178.313976 232.582579 -0.306124476
C 179.561765 228.983327 -0.408894214
C 179.561987 230.411656 -0.43145735
C 180.829373 231.119997 -0.450915606
C 180.812252 232.58091 -0.468801356
C 182.064671 228.994215 -0.541094983
C 182.071114 230.432218 -0.55613601
C 183.319286 231.157125 -0.664821893
C 183.34909 232.588187 -0.684149946
C 184.558764 228.910885 -0.531411115
C 184.567584 230.340314 -0.651467092
C 185.804621 231.125006 -0.853104777
C 185.785278 232.568934 -0.865587398
C 187.019391 228.938455 -0.624730482
C 187.057562 230.339675 -0.838815318
C 188.295172 231.061077 -0.968860534
C 188.290736 232.519469 -0.945774085
C 189.565681 228.943997 -0.731120873
C 189.531641 230.323945 -0.942739189
C 190.750033 231.082359 -0.942359344
C 190.798545 232.536625 -0.867938151
C 192.067825 228.865605 -0.811020054
C 192.058786 230.356419 -0.941072043
C 193.323265 231.068935 -1.01176403
C 193.358223 232.554193 -0.996860234
C 194.559635 228.899101 -0.960914405
C 194.567741 230.309901 -1.04294383
C 195.766614 231.065307 -1.1946332
C 195.830967 232.523169 -1.23878243
C 197.042547 228.870702 -1.11115609
C 197.01574 230.324793 -1.16233041
C 198.287311 231.05491 -1.32869381
C 198.29648 232.487085 -1.39163207
C 199.474055 228.90221 -1.37225554
C 199.523221 230.333667 -1.45676446
C 200.742338 231.036305 -1.52816471
C 200.768509 232.492809 -1.52496527
C 201.976363 228.850295 -1.41021709
C 201.995364 230.305394 -1.48401104
C 203.299041 231.040552 -1.45040576
C 203.256932 232.48723 -1.49382603
C 204.506891 228.901711 -1.36869928
C 204.504535 230.352225 -1.43985604
C 205.724173 231.083501 -1.47348202
C 205.719003 232.505089 -1.56634672
C 207.033872 228.927204 -1.37599301
C 207.053594 230.405029 -1.39777558
C 208.28122 231.109878 -1.268114
C 208.255924 232.549614 -1.33076496
C 209.462445 228.922227 -1.20408744
C 209.479889 230.396519 -1.22719453
C 210.703915 231.081385 -1.11365939
C 210.736446 232.515103 -1.15049783
C 211.98465 228.955122 -0.983160763
C 211.966029 230.371594 -1.09525791
C 213.24106 231.102568 -1.18508594
C 213.22265 232.54375 -1.26771728
C 214.498852 228.918988 -0.941235668
C 214.512866 230.388854 -1.06115892
C 215.764395 231.110546 -1.04856135
C 215.756241 232.566435 -1.09368347
C 216.974389 228.943564 -1.0055503
C 216.992301 230.347537 -1.0565992
C 218.251957 231.094641 -1.15649496
C 218.27259 232.53884 -1.14225821
C 219.502262 228.927447 -0.946333965
C 219.510196 230.342821 -1.03421841
C 220.734452 231.066451 -0.887678842
C 220.750066 232.480316 -0.81089676
C 221.980928 228.894873 -0.927559185
C 221.999154 230.328866 -0.912751795
C 223.251163 231.079715 -0.915613959
C 223.235569 232.535447 -0.832630739
C 224.461418 228.898506 -0.86440665
C 224.502333 230.360105 -0.916728736
C 225.73752 231.073839 -0.904413444
C 225.728331 232.529261 -0.908137351
C 226.988611 228.929484 -0.81310884
C 226.971966 230.363515 -0.783991358
C 228.178712 231.109669 -0.717319276
C 228.146127 232.544245 -0.775937559
C 229.406719 228.955821 -0.734074341
C 229.420576 230.387666 -0.655724284
C 230.700144 231.090436 -0.585405365
C 230.672544 232.512368 -0.66337632
C 231.902909 228.876451 -0.769356663
C 231.954079 230.324231 -0.707850163
C 233.205459 231.068703 -0.793763279
C 233.220931 232.543421 -0.709667551
C 234.380206 228.909806 -0.926679885
C 234.420033 230.340168 -0.915450409
C 235.662001 231.079619 -0.903426091
C 235.652989 232.499712 -0.768785933
C 236.894964 228.865972 -0.882008063
C 236.908421 230.334026 -0.886913277
C 238.159419 231.078047 -0.806227699
C 238.158722 232.531803 -0.829695306
C 239.412861 228.891727 -0.972510208
C 239.374046 230.361144 -0.929723874
C 240.639297 231.107349 -0.938206213
C 240.63852 232.526455 -0.927280991
C 241.866292 228.923708 -0.911422239
C 241.879893 230.346482 -0.982977495
C 243.177477 231.090391 -0.87272634
C 243.159684 232.523897 -0.923387924
C 244.426272 228.920077 -0.714068399
C 244.428119 230.398776 -0.69652971
C 245.625898 231.111699 -0.542799286
C 245.62892 232.524399 -0.635007794
C 246.884015 228.932938 -0.450067522
C 246.843837 230.381123 -0.45344974
C 248.115866 231.09142 -0.416541395
C 248.083233 232.518356 -0.465573576
C 249.342963 233.225278 -0.367585372
C 249.345472 234.68072 -0.561208919
C 1.19865476 235.350335 -0.51955334
C 1.28629321 236.791778 -0.551686652
C 2.46549409 233.254961 -0.290084476
C 2.42953042 234.655293 -0.388634912
C 3.68054556 235.370657 -0.306418015
C 3.75630572 236.812219 -0.32979416
C 4.91939209 233.18376 -0.126187716
C 4.95582767 234.662199 -0.195034819
C 6.18802148 235.365676 -0.0815439634
C 6.21518157 236.796355 -0.0905762028
C 7.46249342 233.190523 -0.128701958
C 7.44519773 234.638646 -0.0887783507
C 8.71933174 235.332864 -0.21537088
C 8.70961517 236.801402 -0.138136444
C 9.97862946 233.230897 -0.277947968
C 9.97337065 234.656181 -0.3264733
C 11.1953254 235.354625 -0.37461292
C 11.2083674 236.842599 -0.419660569
C 12.5300334 233.218645 -0.417709753
C 12.502102 234.65262 -0.525530082
C 13.6856252 235.465774 -0.645395108
C 13.7369225 236.893408 -0.63339877
C 14.9442484 233.249099 -0.46600183
C 14.9307351 234.685944 -0.668865049
C 16.2020908 235.447559 -0.685744023
C 16.1925144 236.902288 -0.687292346
C 17.4484001 233.269826 -0.634874815
C 17.4670722 234.731338 -0.633622828
C 18.7627965 235.408157 -0.654336867
C 18.6899894 236.862106 -0.702384875
C 19.9367626 233.232693 -0.565248348
C 20.0043382 234.656497 -0.623825226
C 21.1947376 235.428316 -0.704633487
C 21.1446348 236.857296 -0.743572551
C 22.4218574 233.224249 -0.614329796
C 22.4397444 234.650384 -0.704791033
C 23.6488137 235.383391 -0.890539423
C 23.6290888 236.858743 -0.929506753
C 24.8768394 233.181618 -0.8589851
C 24.8686593 234.654745 -0.968511338
C 26.1432876 235.343873 -1.04172021
C 26.1013062 236.787275 -1.13739453
C 27.4207686 233.155652 -0.923216004
C 27.431687 234.596768 -0.96011312
C 28.6696497 235.359063 -0.864384972
C 28.6359697 236.82667 -0.949198002
C 29.9272799 233.211269 -0.891737322
C 29.9045571 234.632254 -0.936980301
C 31.1397956 235.419712 -0.939954814
C 31.1069364 236.90459 -0.92432367
C 32.3830138 233.24896 -0.889632374
C 32.3968049 234.734239 -0.88571609
C 33.6453402 235.440751 -0.899588692
C 33.614197 236.885949 -0.901076303
C 34.8910093 233.302522 -0.826442164
C 34.8606168 234.681108 -0.836050413
C 36.0915911 235.429411 -0.734641197
C 36.0756545 236.844873 -0.736375145
C 37.341698 233.24359 -0.679824709
C 37.3457534 234.721258 -0.691307451
C 38.5845918 235.431855 -0.609471012
C 38.5894571 236.873306 -0.582204279
C 39.8583115 233.282308 -0.566932481
C 39.834601 234.713288 -0.517476144
C 41.1149934 235.432894 -0.432196933
C 41.1172354 236.903491 -0.50089975
C 42.3587048 233.293202 -0.356055185
C 42.3635366 234.70988 -0.387294329
C 43.5876738 235.427881 -0.330352636
C 43.6227255 236.874572 -0.456791513
C 44.9004403 233.279554 -0.297130578
C 44.8716392 234.692923 -0.292425628
C 46.1144346 235.462224 -0.465964645
C 46.0951174 236.878787 -0.487890515
C 47.3560257 233.25779 -0.430501984
C 47.3561997 234.744351 -0.52547079
C 48.6564087 235.4374 -0.542736896
C 48.6223372 236.890139 -0.47054604
C 49.8383321 233.263504 -0.458222346
C 49.8555993 234.713994 -0.464411156
C 51.1231894 235.471937 -0.526948559
C 51.1336756 236.935643 -0.489650421
C 52.3775031 233.324527 -0.457411731
C 52.3880115 234.752822 -0.500760542
C 53.6184698 235.487815 -0.387855199
C 53.6344856 236.950343 -0.415411508
C 54.810947 233.309005 -0.174682884
C 54.8561694 234.766377 -0.340550919
C 56.1014056 235.485143 -0.389544855
C 56.1207814 236.898972 -0.325492632
C 57.2974489 233.346476 -0.177040871
C 57.3409479 234.762128 -0.380209269
C 58.5709259 235.501104 -0.435614607
C 58.5773395 236.917336 -0.427971873
C 59.804068 233.352349 -0.283060604
C 59.8337416 234.792043 -0.445233701
C 61.0883441 235.519998 -0.464309587
C 61.0839205 236.945054 -0.426435268
C 62.2726714 233.271975 -0.333010579
C 62.2665466 234.74416 -0.382494688
C 63.4935147 235.476433 -0.446254544
C 63.5531563 236.922838 -0.306002871
C 64.7783274 233.294549 -0.516440254
C 64.8022524 234.744563 -0.537454425
C 66.057787 235.486934 -0.46620216
C 66.0424996 236.921393 -0.364628969
C 67.2973746 233.34019 -0.366763809
C 67.3220134 234.780933 -0.374987101
C 68.5501957 235.491299 -0.397586831
C 68.5639517 236.956565 -0.359089838
C 69.7991272 233.365703 -0.341710411
C 69.8139233 234.794502 -0.385746724
C 71.036626 235.529804 -0.381079406
C 71.0171495 236.95722 -0.393830985
C 72.3044278 233.336299 -0.431933754
C 72.2559273 234.764004 -0.42417578
C 73.5257669 235.497482 -0.419869712
C 73.5233875 236.946608 -0.35230485
C 74.7583221 233.310022 -0.556970071
C 74.7745448 234.738844 -0.565751253
C 76.0173645 235.458361 -0.620579253
C 76.0030349 236.927686 -0.437621505
C 77.2723167 233.354852 -0.885159448
C 77.238686 234.769588 -0.719006055
C 78.5059044 235.458876 -0.726778545
C 78.4781556 236.923547 -0.655867171
C 79.7729481 233.300619 -1.04307951
C 79.7630332 234.75351 -0.913590126
C 80.9952215 235.475204 -0.941416901
C 81.0230778 236.948833 -0.866086161
C 82.2626283 233.285953 -1.07595369
C 82.2550001 234.755471 -1.07315893
C 83.5251658 235.46106 -1.0582525
C 83.5252763 236.882321 -1.00777564
C 84.7706534 233.33032 -0.990369612
C 84.7767077 234.754439 -1.05679193
C 85.9971011 235.451392 -0.987474316
C 85.9965136 236.901997 -0.991892332
C 87.2833734 233.352422 -0.965191716
C 87.2597712 234.787419 -1.01084607
C 88.5526947 235.458612 -1.0619605
C 88.5283269 236.93538 -1.07825487
C 89.8244211 233.349738 -0.8886885
C 89.8118378 234.7499 -0.977684856
C 91.02156 235.485787 -0.891362641
C 91.0615907 236.920037 -0.980249251
C 92.2484666 233.31082 -0.640705866
C 92.2788316 234.763408 -0.828223599
C 93.5253695 235.465314 -0.929253428
C 93.5473111 236.918479 -0.874264434
C 94.7374265 233.297423 -0.818579092
C 94.7229748 234.740686 -0.984810349
C 95.9725753 235.466135 -1.03654843
C 96.0398274 236.91013 -0.95926529
C 97.2519034 233.308236 -0.900603151
C 97.2414181 234.738533 -0.986422284
C 98.506035 235.444459 -1.06566673
C 98.5342781 236.864977 -0.942381269
C 99.7158188 233.261516 -0.887095769
C 99.7058379 234.707219 -1.06559719
C 101.005986 235.449394 -1.12811315
C 101.021433 236.896802 -1.01139378
C 102.24084 233.301807 -1.03994347
C 102.265929 234.712349 -1.14102884
C 103.522808 235.414649 -1.18134994
C 103.522885 236.863772 -1.10479988
C 104.75986 233.281846 -1.11065365
C 104.753637 234.699393 -1.24717973
C 106.013815 235.44678 -1.27316146
C 106.03414 236.863937 -1.10091527
C 107.255341 233.277915 -1.24290224
C 107.270797 234.722162 -1.28199998
C 108.505647 235.462568 -1.05724181
C 108.497053 236.874783 -0.909647486
C 109.736923 233.274267 -1.06826366
C 109.749694 234.734179 -1.01946283
C 110.998672 235.43518 -0.940267159
C 110.953005 236.882589 -0.832783497
C 112.279965 233.284384 -0.931385692
C 112.253405 234.750388 -0.852803465
C 113.515109 235.441043 -0.861400048
C 113.477545 236.901561 -0.795150554
C 114.770335 233.23292 -0.82118144
C 114.748227 234.712745 -0.801541647
C 116.008896 235.396522 -0.732622531
C 115.969966 236.856788 -0.643578612
C 117.25588 233.258268 -0.791625219
C 117.231272 234.679691 -0.717207529
C 118.485081 235.386208 -0.539731771
C 118.497065 236.843142 -0.528525913
C 119.734773 233.229764 -0.76572249
C 119.693772 234.679513 -0.581452073
C 120.954287 235.384777 -0.592669395
C 120.960074 236.816241 -0.574520089
C 122.218298 233.242184 -0.648648823
C 122.184515 234.665688 -0.606981805
C 123.467979 235.384576 -0.615914521
C 123.425094 236.807451 -0.467049421
C 124.694663 233.22321 -0.548294631
C 124.712268 234.700464 -0.611396248
C 125.986834 235.385378 -0.58982808
C 125.987519 236.795797 -0.517091138
C 127.222928 233.248891 -0.651174567
C 127.262091 234.694601 -0.654528501
C 128.506691 235.358156 -0.727468928
C 128.487346 236.775254 -0.625271109
C 129.683161 233.199623 -0.871621783
C 129.704052 234.613022 -0.820864706
C 130.961641 235.340724 -0.87710708
C 130.987961 236.791515 -0.763656829
C 132.209944 233.201643 -1.04340673
C 132.219951 234.657439 -0.920950303
C 133.441657 235.41304 -0.831440039
C 133.427063 236.845046 -0.837962804
C 134.69379 233.302853 -0.984722653
C 134.672883 234.710987 -0.792893981
C 135.954944 235.420572 -0.800427569
C 135.954825 236.860973 -0.732021776
C 137.183262 233.216589 -0.91428973
C 137.194354 234.677249 -0.848668776
C 138.417907 235.432286 -0.810423419
C 138.426373 236.87457 -0.733756529
C 139.693316 233.284352 -0.94336711
C 139.681837 234.758869 -0.791207964
C 140.948631 235.437105 -0.680100976
C 140.919529 236.844386 -0.57795377
C 142.18681 233.284892 -0.727120629
C 142.191646 234.713397 -0.657983545
C 143.425937 235.457093 -0.665017104
C 143.398538 236.872525 -0.589462243
C 144.644947 233.274327 -0.573619211
C 144.653044 234.722201 -0.612438262
C 145.935576 235.410389 -0.537069076
C 145.911472 236.858637 -0.487521363
C 147.178214 233.30742 -0.58409705
C 147.185448 234.710198 -0.540983164
C 148.410348 235.407654 -0.446736331
C 148.419291 236.858513 -0.457124672
C 149.702035 233.279148 -0.424230973
C 149.723465 234.688936 -0.435730741
C 150.974291 235.466082 -0.501581651
C 150.935861 236.865378 -0.601228229
C 152.171982 233.352155 -0.305020099
C 152.222969 234.751281 -0.380672482
C 153.434979 235.499447 -0.354378618
C 153.448322 236.921401 -0.455110409
C 154.652761 233.338711 -0.220626524
C 154.666777 234.780807 -0.26376688
C 155.930996 235.497243 -0.275358105
C 155.913142 236.901349 -0.29856506
C 157.136072 233.319753 -0.208136908
C 157.179368 234.72811 -0.255152321
C 158.396468 235.478226 -0.180941795
C 158.459519 236.931064 -0.254287511
C 159.662523 233.305573 -0.0145089836
C 159.678151 234.747268 0.014439965
C 160.917199 235.51223 0.09868308
C 160.896091 236.91853 0.072103686
C 162.13231 233.314669 0.136173874
C 162.148197 234.761151 0.130014088
C 163.39778 235.481918 0.247811995
C 163.407545 236.927547 0.173450097
C 164.609865 233.302007 0.180530897
C 164.64428 234.755857 0.258497379
C 165.886991 235.473287 0.160338049
C 165.838891 236.87254 -0.0321938395
C 167.126714 233.322517 0.211956378
C 167.120155 234.743854 0.169422392
C 168.405036 235.453912 0.174359396
C 168.387654 236.909718 -0.00419005252
C 169.630004 233.287835 0.162428425
C 169.631625 234.72916 0.120137334
C 170.843296 235.481113 0.0437457485
C 170.863719 236.933356 -0.0374495844
C 172.122454 233.324957 0.0639910746
C 172.106689 234.757275 0.0260932438
C 173.358257 235.447844 -0.125684178
C 173.333625 236.862321 -0.0703189554
C 174.60015 233.287579 -0.30462431
C 174.584835 234.717463 -0.218899992
C 175.833312 235.436205 -0.208994941
C 175.816625 236.916187 -0.144834672
C 177.07726 233.275652 -0.24807392
C 177.099628 234.709723 -0.154805599
C 178.33833 235.49869 -0.146130435
C 178.32273 236.914884 -0.120846092
C 179.526629 233.262423 -0.373768407
C 179.56528 234.695686 -0.379072698
C 180.812094 235.422147 -0.416288036
C 180.837333 236.85497 -0.304349622
C 182.1064 233.288746 -0.580222397
C 182.108632 234.740287 -0.50984787
C 183.342869 235.473177 -0.493102946
C 183.331664 236.890508 -0.451767936
C 184.564737 233.308607 -0.745315965
C 184.565479 234.761855 -0.629122617
C 185.834741 235.40635 -0.667690896
C 185.845521 236.843447 -0.530275859
C 187.064742 233.272437 -0.890566927
C 187.091985 234.719057 -0.791610819
C 188.330007 235.42204 -0.893563608
C 188.319654 236.867824 -0.779548481
C 189.580992 233.244531 -0.900017895
C 189.565457 234.715206 -0.829784711
C 190.81087 235.405272 -0.85019019
C 190.804708 236.824698 -0.898603456
C 192.08229 233.219363 -0.903637894
C 192.06534 234.731801 -0.93393038
C 193.372146 235.426615 -1.02542797
C 193.332108 236.829599 -0.971580103
C 194.597997 233.253503 -1.08415022
C 194.578069 234.703922 -1.08186321
C 195.846459 235.402248 -1.07481649
C 195.807378 236.853715 -1.06174917
C 197.026957 233.250178 -1.294582
C 197.081171 234.661196 -1.13655475
C 198.300082 235.367687 -1.21288286
C 198.309089 236.809022 -1.2027293
C 199.540871 233.232005 -1.49462739
C 199.543815 234.67014 -1.35980575
C 200.779942 235.360495 -1.38363758
C 200.740114 236.757942 -1.3586346
C 202.036478 233.239604 -1.46519178
C 202.03699 234.664872 -1.43734498
C 203.321529 235.373441 -1.43477697
C 203.269501 236.843478 -1.38329259
C 204.526899 233.224632 -1.53094214
C 204.528286 234.639307 -1.45894521
C 205.75224 235.428238 -1.33442644
C 205.749876 236.842152 -1.32135611
C 206.980874 233.261811 -1.42188329
C 206.979229 234.678629 -1.31494485
C 208.224752 235.385372 -1.34739739
C 208.228446 236.850206 -1.37025268
C 209.480223 233.261063 -1.28667123
C 209.500628 234.689519 -1.37941179
C 210.697766 235.446018 -1.41200181
C 210.694245 236.87289 -1.51660698
C 211.979401 233.259214 -1.26151591
C 211.960602 234.716067 -1.34858497
C 213.180954 235.419393 -1.42611252
C 213.197953 236.884293 -1.47116519
C 214.498499 233.246832 -1.18103102
C 214.435754 234.736395 -1.28121801
C 215.703725 235.381063 -1.27759944
C 215.706707 236.808643 -1.38873054
C 216.975698 233.256165 -1.12987242
C 216.95348 234.662859 -1.21130852
C 218.236385 235.325766 -1.20167292
C 218.194433 236.754876 -1.27092116
C 219.52028 233.240849 -1.00750093
C 219.529196 234.648584 -1.08215821
C 220.723187 235.370135 -0.959940953
C 220.715917 236.774841 -1.01282934
C 221.988944 233.205584 -0.761552272
C 221.957138 234.648177 -0.870060661
C 223.199101 235.40914 -0.829910913
C 223.205818 236.843867 -0.907724828
C 224.483014 233.212307 -0.839407263
C 224.472089 234.649882 -0.823053984
C 225.738204 235.379272 -0.803539519
C 225.736223 236.830518 -0.885690011
C 226.950044 233.23981 -0.822976596
C 226.975737 234.710815 -0.793354069
C 228.246498 235.417888 -0.853949942
C 228.256579 236.831705 -0.938110543
C 229.43318 233.220765 -0.709999948
C 229.450698 234.637574 -0.746052486
C 230.694219 235.381707 -0.647391195
C 230.686476 236.808504 -0.721988336
C 231.939462 233.206643 -0.70618055
C 231.898614 234.639728 -0.665824627
C 233.166963 235.43493 -0.674228598
C 233.205934 236.835602 -0.737608819
C 234.438812 233.301553 -0.686816267
C 234.388637 234.70277 -0.652706564
C 235.627988 235.440515 -0.752855595
C 235.633566 236.851868 -0.652798482
C 236.892809 233.246661 -0.759247514
C 236.887768 234.687792 -0.71999474
C 238.118636 235.390949 -0.760012216
C 238.171807 236.833531 -0.805432964
C 239.399227 233.267869 -0.854909607
C 239.396785 234.712244 -0.832143579
C 240.649649 235.415595 -0.933816369
C 240.683479 236.889008 -0.88585077
C 241.905733 233.224339 -0.938486631
C 241.919926 234.700717 -0.940928244
C 243.14892 235.380186 -0.832714319
C 243.173285 236.820128 -0.875316676
C 244.415081 233.222763 -0.810571823
C 244.412265 234.637587 -0.764571118
C 245.634619 235.390117 -0.812944269
C 245.59505 236.844789 -0.852616423
C 246.872224 233.23296 -0.646348133
C 246.857183 234.617508 -0.736821193
C 248.130512 235.385814 -0.745582641
C 248.157118 236.860924 -0.739795799
C 0.0265425709 237.564979 -0.598050278
C 0.0444880994 238.97837 -0.509784081
C 1.29390708 239.709803 -0.424924808
C 1.27898203 241.145774 -0.413155003
C 2.53132572 237.545613 -0.433040272
C 2.54435978 238.996665 -0.391864417
C 3.79479093 239.729355 -0.35630047
C 3.77672767 241.134812 -0.277728133
C 4.97200992 237.553141 -0.262807772
C 5.03231296 238.970096 -0.30500755
C 6.28497266 239.70223 -0.114283913
C 6.23261421 241.132306 -0.20960396
C 7.44229848 237.497319 -0.0672626526
C 7.48947227 238.933876 -0.0478189413
C 8.74660134 239.660258 -0.233986256
C 8.77027778 241.153706 -0.408262003
C 9.97711356 237.525799 -0.367099366
C 9.99262756 238.974837 -0.399583147
C 11.2412132 239.750383 -0.480704724
C 11.2130275 241.184632 -0.523738017
C 12.465709 237.56658 -0.453288198
C 12.4785328 239.040556 -0.420565757
C 13.7403595 239.746622 -0.486039563
C 13.725916 241.207936 -0.471794083
C 14.956097 237.634656 -0.620448651
C 14.9751382 239.055239 -0.543219941
C 16.2022156 239.727573 -0.710558335
C 16.2377068 241.210177 -0.684291973
C 17.458076 237.596473 -0.7483761
C 17.4339312 238.988145 -0.762128568
C 18.6591526 239.702303 -0.773528839
C 18.7090736 241.136978 -0.751248067
C 19.9231541 237.598055 -0.68007892
C 19.9310658 239.030096 -0.760073689
C 21.1548573 239.730276 -0.862205908
C 21.2019838 241.127441 -0.835966761
C 22.3831125 237.554551 -0.869542683
C 22.3864724 238.995018 -0.892236866
C 23.6248886 239.70348 -1.04633779
C 23.7180272 241.131759 -1.07228685
C 24.8831956 237.537252 -1.03860155
C 24.8812299 238.965029 -1.04606534
C 26.1072945 239.709781 -1.16984605
C 26.1274141 241.157126 -1.1813725
C 27.3352011 237.562807 -1.05685438
C 27.3537909 239.010361 -1.12804084
C 28.5903659 239.740391 -1.03499957
C 28.663213 241.173287 -1.03154871
C 29.8184748 237.609709 -0.958012674
C 29.8122345 239.057467 -0.977143325
C 31.160711 239.749408 -0.916991347
C 31.1182465 241.198166 -0.884408201
C 32.369693 237.570391 -0.854414071
C 32.3831606 238.987773 -0.915724043
C 33.6191637 239.703422 -0.911869683
C 33.5969011 241.167579 -0.876222915
C 34.8627256 237.586662 -0.81528375
C 34.8882815 239.016409 -0.78776998
C 36.1201484 239.704264 -0.675404028
C 36.1212996 241.175317 -0.676029986
C 37.3605477 237.582521 -0.553824051
C 37.3905141 239.018534 -0.494534058
C 38.593138 239.753771 -0.429658184
C 38.5982046 241.199401 -0.555673381
C 39.8294049 237.597017 -0.543142141
C 39.8768889 239.056864 -0.517006662
C 41.1367754 239.744421 -0.541709202
C 41.1426833 241.198735 -0.562824147
C 42.3595649 237.548442 -0.464375897
C 42.3487083 239.023446 -0.544210661
C 43.6228862 239.775057 -0.570883604
C 43.6135701 241.21986 -0.61152027
C 44.8798306 237.653124 -0.591691515
C 44.8813778 239.086235 -0.513938502
C 46.1283082 239.789752 -0.560156682
C 46.116164 241.231133 -0.651660494
C 47.387652 237.63964 -0.490899951
C 47.3826943 239.073745 -0.526535724
C 48.6412871 239.814028 -0.510469111
C 48.5982096 241.220461 -0.566555792
C 49.8693518 237.646985 -0.502737611
C 49.855247 239.087026 -0.564410178
C 51.1340595 239.803452 -0.520919195
C 51.1022826 241.228638 -0.489304859
C 52.4100755 237.68573 -0.496539862
C 52.3914791 239.09051 -0.483615842
C 53.6101012 239.803643 -0.339012721
C 53.5776471 241.297318 -0.421864169
C 54.86989 237.660904 -0.369075429
C 54.8674989 239.100809 -0.320429829
C 56.1150978 239.794443 -0.288070019
C 56.1182559 241.22165 -0.310919601
C 57.3404557 237.648269 -0.37284195
C 57.3946771 239.070505 -0.295178197
C 58.6324912 239.793981 -0.297103123
C 58.6491442 241.20584 -0.253669872
C 59.7865713 237.604193 -0.433235194
C 59.8144398 239.052656 -0.40817385
C 61.0621579 239.786774 -0.425801314
C 61.0784235 241.247644 -0.547647858
C 62.3184804 237.646492 -0.325286822
C 62.293969 239.050264 -0.368081083
C 63.5707282 239.800092 -0.326470036
C 63.5471043 241.257947 -0.336198051
C 64.8220733 237.64456 -0.303735015
C 64.8291792 239.081049 -0.289147815
C 66.0622632 239.832647 -0.293421423
C 66.0573591 241.272122 -0.285633296
C 67.2942625 237.652991 -0.334643146
C 67.3429355 239.099804 -0.383498836
C 68.5811464 239.84849 -0.427058309
C 68.5367498 241.252385 -0.400926264
C 69.7659581 237.671848 -0.302081476
C 69.7990846 239.146924 -0.363807139
C 71.065173 239.83703 -0.231287115
C 71.0723558 241.241489 -0.228206094
C 72.2433852 237.677582 -0.322243565
C 72.3071957 239.125705 -0.182699648
C 73.5710113 239.822365 -0.0109375355
C 73.5978253 241.301827 -0.0852405069
C 74.7744896 237.587465 -0.319627791
C 74.7703915 239.018165 -0.172416724
C 76.0578933 239.78858 -0.248541891
C 76.0672038 241.304049 -0.224882121
C 77.2664593 237.648078 -0.474210235
C 77.2710481 239.071172 -0.417743642
C 78.5224718 239.792441 -0.600601848
C 78.5578791 241.273743 -0.530388291
C 79.751666 237.666453 -0.775587983
C 79.7976218 239.08307 -0.730269302
C 81.0457871 239.778172 -0.83179667
C 81.0403035 241.268043 -0.720430583
C 82.2955962 237.652978 -0.869457385
C 82.2724551 239.130843 -0.842883714
C 83.5290096 239.846683 -1.00143425
C 83.5006614 241.288076 -1.00061736
C 84.7605006 237.60645 -0.963023251
C 84.8154176 239.058302 -1.00369226
C 86.037167 239.841452 -1.02575275
C 86.0245572 241.288383 -0.938631882
C 87.2560364 237.642314 -1.03631926
C 87.2838663 239.098207 -0.957683745
C 88.5869525 239.824913 -0.889001678
C 88.5394426 241.252866 -0.952022488
C 89.7895713 237.636243 -1.01545115
C 89.8310064 239.073083 -0.861166085
C 91.0485098 239.825658 -0.795557098
C 91.0536192 241.26552 -0.795214722
C 92.2657085 237.671326 -0.887626572
C 92.2961096 239.105943 -0.797523671
C 93.5550413 239.778223 -0.823384944
C 93.5607262 241.218175 -0.792882251
C 94.7997101 237.607959 -0.927558477
C 94.7601551 239.057096 -0.906236828
C 96.0116309 239.785025 -0.939334819
C 96.0376999 241.226043 -0.875833457
C 97.2854247 237.652941 -0.90449957
C 97.2699732 239.082936 -0.9228143
C 98.5241708 239.765049 -0.874857305
C 98.5352817 241.196357 -0.797557577
C 99.7496791 237.59808 -1.01355026
C 99.789798 239.039998 -1.01282442
C 101.01228 239.769893 -1.04329955
C 101.062524 241.21118 -0.895275378
C 102.284965 237.543243 -1.03856717
C 102.239687 239.03811 -1.16405267
C 103.489136 239.737594 -1.07204601
C 103.539897 241.157842 -0.904384458
C 104.768675 237.52347 -1.07470682
C 104.753398 238.976431 -1.05108008
C 106.028685 239.754749 -0.829177763
C 106.01028 241.194807 -0.69189446
C 107.233139 237.595471 -0.927113589
C 107.280524 238.995236 -0.743088134
C 108.50663 239.746222 -0.719614459
C 108.501745 241.144376 -0.663641872
C 109.732056 237.566202 -0.881664996
C 109.817128 239.029169 -0.780115205
C 111.004629 239.760748 -0.677876822
C 110.956802 241.180098 -0.454511368
C 112.24039 237.615637 -0.742701395
C 112.247177 239.04035 -0.628480229
C 113.492869 239.742376 -0.482346701
C 113.475408 241.169753 -0.30272083
C 114.719184 237.566074 -0.652218296
C 114.785506 239.004506 -0.492389997
C 116.012843 239.737583 -0.464317848
C 115.981125 241.185574 -0.474572086
C 117.219302 237.593419 -0.538823264
C 117.249439 239.015406 -0.348455289
C 118.503123 239.742914 -0.466933554
C 118.479119 241.222961 -0.462877647
C 119.750952 237.586402 -0.510156543
C 119.743532 238.997122 -0.511090968
C 121.018011 239.737865 -0.472236217
C 120.989583 241.155842 -0.265817938
C 122.201784 237.624813 -0.542612761
C 122.252634 239.024435 -0.467868225
C 123.50604 239.707833 -0.465730437
C 123.481794 241.123376 -0.387346788
C 124.722599 237.523131 -0.487337236
C 124.710485 238.971877 -0.445913254
C 125.945825 239.645137 -0.420168446
C 125.920808 241.112948 -0.296416259
C 127.236435 237.530815 -0.486711811
C 127.188347 238.942556 -0.463680133
C 128.400261 239.698149 -0.480618567
C 128.392821 241.162527 -0.314156871
C 129.689694 237.509273 -0.765741123
C 129.680257 239.018403 -0.617661454
C 130.897756 239.768672 -0.565385598
C 130.88951 241.161062 -0.459493533
C 132.176431 237.523686 -0.694451243
C 132.14941 238.985977 -0.585981498
C 133.390702 239.731645 -0.509832807
C 133.441909 241.14449 -0.449559117
C 134.686833 237.557313 -0.734406862
C 134.646476 239.035918 -0.552899171
C 135.924793 239.752568 -0.453497925
C 135.917806 241.175818 -0.432151583
C 137.183942 237.617536 -0.667146517
C 137.218326 239.043409 -0.518764061
C 138.459665 239.765701 -0.514718231
C 138.43095 241.202305 -0.379175117
C 139.640222 237.598394 -0.621951342
C 139.689022 239.024583 -0.530789458
C 140.984263 239.717499 -0.398918859
C 140.929465 241.186553 -0.371308513
C 142.171637 237.570666 -0.438507541
C 142.233795 238.998931 -0.327473104
C 143.444958 239.731864 -0.279993341
C 143.424361 241.175789 -0.293796132
C 144.668321 237.597037 -0.444150062
C 144.678307 239.013621 -0.349168886
C 145.917825 239.740964 -0.326981354
C 145.927177 241.187042 -0.302021631
C 147.156823 237.536451 -0.501983909
C 147.16736 238.97565 -0.400275104
C 148.413555 239.748808 -0.500774426
C 148.42892 241.202185 -0.500202646
C 149.675778 237.568176 -0.591085793
C 149.659803 239.018867 -0.496964124
C 150.939583 239.800044 -0.39924206
C 150.922233 241.251848 -0.331301977
C 152.162772 237.639561 -0.483237289
C 152.145806 239.115743 -0.438244544
C 153.425399 239.814545 -0.348543776
C 153.36669 241.216988 -0.191315294
C 154.701658 237.640107 -0.330177841
C 154.650981 239.098348 -0.306559961
C 155.944961 239.778856 -0.191194573
C 155.932773 241.232331 -0.119004165
C 157.173256 237.60754 -0.350471952
C 157.163981 239.078644 -0.30434683
C 158.413523 239.773337 -0.161363601
C 158.406629 241.223496 -0.0557945941
C 159.671691 237.676264 -0.0994573188
C 159.671116 239.098343 -0.0827147798
C 160.942602 239.853904 -0.0297832193
C 160.93184 241.24247 -0.150669833
C 162.154517 237.658776 0.169147894
C 162.154349 239.07692 0.0126292566
C 163.419328 239.794785 -0.0416600827
C 163.362573 241.27167 -0.104997952
C 164.643202 237.600508 0.083826491
C 164.660254 239.033848 -0.0487987016
C 165.852137 239.796921 -0.101892171
C 165.842083 241.219262 -0.0913952812
C 167.100414 237.597686 -0.106687911
C 167.093794 239.07803 -0.0612100686
C 168.340434 239.790043 0.0948310145
C 168.330025 241.265328 0.0785260663
C 169.633078 237.671788 -0.018224159
C 169.600307 239.083115 0.0248813392
C 170.826103 239.802467 -0.0718234994
C 170.856025 241.294569 -0.051801129
C 172.134546 237.588797 -0.0364956117
C 172.074185 239.065109 -0.0414629639
C 173.348994 239.793578 -0.127326402
C 173.333501 241.274389 -0.0828000621
C 174.554192 237.595821 -0.144252913
C 174.593411 239.058372 -0.242215993
C 175.840484 239.764149 -0.10058738
C 175.903471 241.246732 -0.0922761863
C 177.051638 237.616452 -0.108989481
C 177.111848 239.048118 0.012746758
C 178.367755 239.849246 -0.0681649706
C 178.41867 241.291487 0.0731252038
C 179.640994 237.661793 -0.195978396
C 179.577337 239.07178 -0.151420262
C 180.828289 239.769926 -0.0895657272
C 180.886099 241.24932 0.0991911083
C 182.083928 237.600536 -0.335320963
C 182.076426 239.045925 -0.230834654
C 183.308845 239.777778 -0.269082619
C 183.31396 241.194777 -0.0967275461
C 184.587902 237.582141 -0.474562448
C 184.596812 239.024498 -0.381743356
C 185.854918 239.703897 -0.496811808
C 185.813086 241.156407 -0.426721754
C 187.100042 237.523389 -0.596496801
C 187.084138 239.019267 -0.612977618
C 188.321687 239.697838 -0.604262871
C 188.329156 241.153402 -0.601611055
C 189.594405 237.573329 -0.797624265
C 189.595786 238.966994 -0.639008239
C 190.825796 239.696411 -0.785178868
C 190.827096 241.141891 -0.695683752
C 192.072798 237.522873 -0.936713156
C 192.093225 239.025291 -0.890610619
C 193.318742 239.714152 -1.04145877
C 193.343318 241.181852 -1.04700509
C 194.567767 237.55188 -1.00828639
C 194.549043 238.981809 -1.03327946
C 195.804405 239.752442 -0.989762772
C 195.834581 241.182872 -1.08334346
C 197.090415 237.554102 -1.12692873
C 197.065037 238.998745 -1.06450178
C 198.282213 239.713585 -1.13331561
C 198.320585 241.18619 -1.24984671
C 199.555798 237.530981 -1.30588297
C 199.55188 238.979499 -1.28689323
C 200.789005 239.721771 -1.53799268
C 200.772281 241.175845 -1.59769785
C 202.010917 237.565314 -1.40137027
C 202.016084 239.021393 -1.51724925
C 203.204875 239.781425 -1.57894426
C 203.232173 241.191996 -1.75855787
C 204.516236 237.591377 -1.40571768
C 204.454918 239.030051 -1.50156927
C 205.731129 239.729697 -1.54534952
C 205.723492 241.15481 -1.62921143
C 207.008702 237.566543 -1.32796956
C 206.944412 238.993622 -1.42746945
C 208.229066 239.730526 -1.3665337
C 208.25806 241.165436 -1.35529307
C 209.453259 237.572245 -1.46026515
C 209.462309 239.017527 -1.50397702
C 210.682217 239.734698 -1.53563804
C 210.759519 241.221472 -1.49582231
C 211.94416 237.607523 -1.50248378
C 211.978181 239.023868 -1.4306705
C 213.205548 239.719038 -1.44456717
C 213.244636 241.208355 -1.38632208
C 214.442924 237.543197 -1.50855763
C 214.454305 239.005771 -1.43214712
C 215.735639 239.684798 -1.2990977
C 215.744347 241.111616 -1.37927463
C 216.984747 237.542146 -1.3219707
C 216.972045 238.967662 -1.3156921
C 218.208034 239.702268 -1.21711686
C 218.238375 241.087575 -1.25310271
C 219.396017 237.493589 -1.15073423
C 219.446973 238.922525 -1.20539458
C 220.707886 239.623804 -1.15078138
C 220.760712 241.107304 -1.16317733
C 221.967031 237.569968 -1.04313515
C 221.994225 238.98547 -1.11539178
C 223.204505 239.686799 -1.09512441
C 223.220667 241.107769 -1.09667631
C 224.480532 237.524992 -0.890817606
C 224.470845 238.954495 -0.961800994
C 225.72549 239.6918 -0.965138185
C 225.705036 241.10983 -0.995271198
C 227.015488 237.573581 -0.949655675
C 227.00185 238.99115 -0.889744701
C 228.199562 239.701031 -0.772600012
C 228.190801 241.130374 -0.831886545
C 229.487078 237.535191 -0.776983635
C 229.474476 238.944042 -0.723614491
C 230.714728 239.727272 -0.702085336
C 230.712901 241.15713 -0.783809917
C 231.929063 237.563283 -0.71075181
C 231.939849 239.000964 -0.629076813
C 233.17748 239.731698 -0.556815652
C 233.201969 241.17145 -0.547360769
C 234.423711 237.566443 -0.644051521
C 234.398843 238.985844 -0.567000753
C 235.645413 239.725779 -0.618272337
C 235.670199 241.195121 -0.579069547
C 236.91481 237.539186 -0.649733635
C 236.883919 239.012455 -0.649351626
C 238.129503 239.66153 -0.645407337
C 238.187753 241.099671 -0.533675475
C 239.430537 237.564183 -0.925254215
C 239.424395 238.996481 -0.758281618
C 240.640759 239.680745 -0.719610495
C 240.664541 241.116558 -0.713360406
C 241.948361 237.528163 -0.813724702
C 241.905937 238.967324 -0.709308195
C 243.162157 239.674862 -0.698951584
C 243.143511 241.083035 -0.665294012
C 244.41001 237.567893 -0.836738372
C 244.414341 239.002071 -0.736833795
C 245.68194 239.719934 -0.648974436
C 245.660936 241.143322 -0.599714164
C 246.894306 237.548869 -0.832997661
C 246.930248 238.987382 -0.744809043
C 248.175993 239.685306 -0.645510769
C 248.153867 241.109732 -0.570661361
C 0.0167142052 241.842168 -0.432442977
C 0.00791863713 243.303818 -0.261263037
C 1.24393944 244.033849 -0.180045226
C 1.28266718 245.461044 -0.289630405
C 2.51671638 241.866244 -0.287272932
C 2.49363214 243.277943 -0.191663515
C 3.78575546 243.971346 -0.258628592
C 3.74996431 245.470992 -0.325640135
C 5.00907148 241.844706 -0.268112217
C 5.03696279 243.293819 -0.254556967
C 6.27256581 244.055195 -0.287087404
C 6.25351225 245.49082 -0.305620055
C 7.50363354 241.857486 -0.314945644
C 7.49460979 243.282029 -0.31620688
C 8.74074444 244.027518 -0.401814412
C 8.73262576 245.505155 -0.368349318
C 9.99604644 241.894919 -0.539919473
C 9.9899428 243.324574 -0.543806146
C 11.239585 244.025769 -0.5868302
C 11.2343959 245.45501 -0.486175517
C 12.4911462 241.907665 -0.502623806
C 12.4703303 243.31442 -0.56652805
C 13.7343221 244.025131 -0.576508149
C 13.6976382 245.478802 -0.482387491
C 15.0048038 241.921943 -0.563316602
C 14.980646 243.34169 -0.635969796
C 16.2310717 244.107928 -0.68178933
C 16.2028214 245.484066 -0.654541223
C 17.4753978 241.89475 -0.75428854
C 17.4951391 243.346311 -0.764650164
C 18.724257 244.066609 -0.756763395
C 18.7029397 245.498975 -0.751628517
C 19.9530128 241.86472 -0.731148645
C 19.9406037 243.329517 -0.748812588
C 21.1879337 244.017086 -0.664263802
C 21.1841113 245.477041 -0.570456994
C 22.4301417 241.848893 -0.877494584
C 22.4307621 243.331512 -0.762285346
C 23.6832955 244.04203 -0.833143875
C 23.6813914 245.472261 -0.677295782
C 24.9016004 241.897104 -1.16541423
C 24.93072 243.337369 -1.03346303
C 26.1951044 244.091338 -0.918861268
C 26.1619962 245.504526 -0.582249665
C 27.3652376 241.887424 -1.0746576
C 27.3995488 243.362124 -0.994120545
C 28.6567764 244.06623 -0.884478896
C 28.6459154 245.521438 -0.691686799
C 29.8773701 241.911667 -0.881609749
C 29.9121331 243.333329 -0.866932255
C 31.1196576 244.08108 -0.861825878
C 31.1262354 245.530435 -0.702057371
C 32.3496747 241.937268 -0.849207225
C 32.3329957 243.375966 -0.780188375
C 33.5911086 244.038216 -0.563761091
C 33.6100645 245.484566 -0.551260378
C 34.848977 241.871154 -0.740931638
C 34.8358211 243.31407 -0.613172987
C 36.0799806 244.02055 -0.623242391
C 36.090221 245.480935 -0.502623771
C 37.3788483 241.892268 -0.653157993
C 37.3744363 243.35123 -0.537585873
C 38.6357632 244.013342 -0.505402275
C 38.6627401 245.482932 -0.495888606
C 39.8712511 241.869729 -0.604016553
C 39.8988051 243.280415 -0.485807397
C 41.0975227 244.07336 -0.523200748
C 41.0869314 245.532042 -0.513458707
C 42.3852452 241.898571 -0.592270423
C 42.4095145 243.346946 -0.578877006
C 43.6514297 244.128124 -0.65465038
C 43.5823371 245.623138 -0.526833007
C 44.8853767 241.930307 -0.651713953
C 44.8706049 243.398553 -0.766106765
C 46.1210191 244.130987 -0.785726468
C 46.0687468 245.551717 -0.660260618
C 47.3611766 241.922938 -0.69222588
C 47.3415378 243.371507 -0.810424745
C 48.6210983 244.11137 -0.785667316
C 48.5872412 245.536392 -0.567322278
C 49.8530926 241.949308 -0.623609358
C 49.8703517 243.369926 -0.742436574
C 51.1128869 244.099018 -0.562920624
C 51.1069293 245.517768 -0.409359219
C 52.3405522 241.95551 -0.430420683
C 52.3412266 243.393286 -0.463658294
C 53.571013 244.064197 -0.278024461
C 53.579885 245.498308 -0.245445426
C 54.8857383 241.982095 -0.294841251
C 54.836085 243.405548 -0.207679516
C 56.1497882 244.129338 -0.100324361
C 56.1079767 245.565678 -0.105566811
C 57.3774419 241.893708 -0.233305537
C 57.3519198 243.378645 -0.105237278
C 58.5662657 244.122794 -0.161022027
C 58.5685054 245.544631 -0.0695490218
C 59.819594 241.980965 -0.385673944
C 59.8193989 243.405815 -0.326919119
C 61.0357883 244.148135 -0.337711264
C 61.0390408 245.58653 -0.233205188
C 62.3223215 241.997519 -0.427674521
C 62.2804596 243.442831 -0.373661025
C 63.5553666 244.114036 -0.289309136
C 63.5684319 245.532446 -0.17019051
C 64.7912915 241.952827 -0.225557466
C 64.7988149 243.422157 -0.196879387
C 66.0847838 244.171382 -0.188591066
C 66.063015 245.592387 -0.0906008981
C 67.2800846 241.985812 -0.373286357
C 67.3082203 243.407378 -0.277608618
C 68.5508132 244.105792 -0.227992288
C 68.5153766 245.56902 -0.21039854
C 69.7521743 241.989402 -0.306106142
C 69.7914374 243.424764 -0.199398053
C 71.0263581 244.155106 -0.0311433835
C 71.0160415 245.574686 -0.0207058852
C 72.3110548 242.00594 -0.12631825
C 72.2886707 243.445461 -0.0443236949
C 73.4998543 244.12156 -0.0564004058
C 73.5350248 245.526588 -0.0461614206
C 74.8097874 241.992912 -0.164808989
C 74.7740452 243.454944 -0.108891011
C 76.057112 244.123515 -0.26487583
C 76.1091321 245.603503 -0.189109252
C 77.2878854 241.973315 -0.416601023
C 77.2606977 243.390383 -0.376987793
C 78.5424313 244.172998 -0.485249124
C 78.5272704 245.611038 -0.413571014
C 79.7667369 241.97084 -0.647775449
C 79.8109383 243.43386 -0.587942551
C 81.0623466 244.103342 -0.664768051
C 81.0017171 245.566203 -0.594687821
C 82.2812946 241.994072 -0.868426508
C 82.2764705 243.41071 -0.781585082
C 83.5249444 244.143041 -0.8969624
C 83.4751105 245.580054 -0.790828675
C 84.7550357 242.024895 -0.965557865
C 84.7631794 243.453828 -1.00306901
C 86.001339 244.15878 -0.960359731
C 85.998664 245.625273 -0.913612387
C 87.2972818 241.952144 -0.933635452
C 87.234925 243.424276 -0.898707938
C 88.5000922 244.109267 -0.868625437
C 88.4637061 245.572931 -0.932090609
C 89.80757 241.977543 -0.946064926
C 89.7725645 243.414647 -0.842568299
C 90.9930852 244.166484 -0.827310892
C 90.9701486 245.613819 -0.813049209
C 92.3058954 242.003382 -0.821313529
C 92.2564921 243.443307 -0.825397303
C 93.5192236 244.136456 -0.66883932
C 93.4908071 245.5647 -0.641423131
C 94.7911736 241.967633 -0.811442181
C 94.7651953 243.397923 -0.824856398
C 96.0250764 244.122374 -0.827603757
C 96.024644 245.567532 -0.809660562
C 97.2535253 241.923927 -0.80110094
C 97.2957591 243.352497 -0.808237567
C 98.5494918 244.077122 -0.780061593
C 98.5311075 245.503158 -0.786439902
C 99.82041 241.90346 -0.8343986
C 99.8030599 243.358531 -0.830910904
C 101.079096 244.042725 -0.756542269
C 101.010739 245.507827 -0.730162086
C 102.286598 241.937907 -0.814570486
C 102.313474 243.34259 -0.653779734
C 103.518159 244.086087 -0.621722833
C 103.563997 245.52023 -0.597121945
C 104.777872 241.894357 -0.739941454
C 104.78303 243.319547 -0.608175277
C 105.991925 244.040669 -0.517431228
C 106.013019 245.46475 -0.397073991
C 107.263969 241.860068 -0.630401713
C 107.288036 243.333256 -0.563144322
C 108.521946 244.089777 -0.524855041
C 108.480631 245.500217 -0.37321909
C 109.72938 241.952933 -0.488445487
C 109.741111 243.377841 -0.433726777
C 110.97713 244.124191 -0.334182448
C 110.964875 245.499214 -0.20280346
C 112.270708 241.895618 -0.254045377
C 112.219524 243.366563 -0.245203345
C 113.450874 244.039107 -0.130499349
C 113.438856 245.461001 0.0268585287
C 114.714339 241.892361 -0.409410016
C 114.689647 243.344383 -0.269585207
C 115.962085 244.009006 -0.153904892
C 115.942896 245.477242 -0.0816264577
C 117.217244 241.940016 -0.369205902
C 117.216957 243.33302 -0.205384555
C 118.464992 244.073401 -0.264404777
C 118.45899 245.506656 -0.123003995
C 119.734686 241.888418 -0.334463293
C 119.715986 243.324861 -0.41487091
C 120.964797 244.020682 -0.459438399
C 120.938143 245.501285 -0.2888109
C 122.254836 241.851769 -0.284389227
C 122.239054 243.274359 -0.378037592
C 123.455374 244.003596 -0.206465554
C 123.428045 245.479343 -0.192821252
C 124.703825 241.829788 -0.28887571
C 124.678993 243.275927 -0.221523016
C 125.924842 244.028503 -0.218411096
C 125.937555 245.432051 -0.295234726
C 127.177593 241.899462 -0.260468652
C 127.109249 243.322325 -0.172670851
C 128.425606 244.040478 -0.241551218
C 128.402896 245.486554 -0.252974626
C 129.688872 241.845828 -0.291713437
C 129.709831 243.291009 -0.269240242
C 130.969506 244.007342 -0.270062428
C 130.949071 245.465397 -0.240742991
C 132.190136 241.849505 -0.375553355
C 132.182167 243.28488 -0.345765993
C 133.392106 244.056329 -0.337056953
C 133.400207 245.475851 -0.341366815
C 134.668514 241.919625 -0.371761348
C 134.688117 243.367461 -0.325602045
C 135.935223 244.110053 -0.295998175
C 135.9059 245.528384 -0.402817255
C 137.179897 241.898879 -0.327874316
C 137.183462 243.327386 -0.222972782
C 138.420475 244.079385 -0.24946466
C 138.463802 245.524926 -0.37482199
C 139.67563 241.919944 -0.314621598
C 139.689857 243.390043 -0.279818199
C 140.922596 244.084854 -0.424483178
C 140.93207 245.495265 -0.350938739
C 142.155735 241.940186 -0.316726888
C 142.193265 243.346965 -0.409031917
C 143.406867 244.02113 -0.386178795
C 143.486657 245.464164 -0.49539262
C 144.685001 241.926343 -0.266214583
C 144.64382 243.320904 -0.377680868
C 145.912537 244.066241 -0.584494533
C 145.938657 245.467273 -0.535216819
C 147.216015 241.923361 -0.441021827
C 147.181167 243.360159 -0.501513423
C 148.415902 244.100343 -0.560419754
C 148.427447 245.534302 -0.558398944
C 149.649594 241.947978 -0.45784724
C 149.659133 243.374688 -0.484285001
C 150.927454 244.12167 -0.390470994
C 150.952321 245.556104 -0.45183564
C 152.140022 241.954248 -0.273991556
C 152.163752 243.365473 -0.276318142
C 153.384123 244.075612 -0.203612878
C 153.429083 245.504373 -0.376822146
C 154.631712 241.954238 -0.128856961
C 154.649409 243.405413 -0.138158318
C 155.894495 244.093966 -0.162370555
C 155.948703 245.563304 -0.292701794
C 157.155566 241.947913 -0.0705352992
C 157.140399 243.382222 -0.121216687
C 158.389768 244.105331 -0.134374923
C 158.432148 245.564284 -0.394134009
C 159.693664 241.960678 -0.0459362988
C 159.624131 243.431297 -0.132477086
C 160.848933 244.122079 -0.267097462
C 160.920155 245.615985 -0.385912481
C 162.151703 241.986297 -0.23301975
C 162.078036 243.426283 -0.233527907
C 163.365781 244.130525 -0.218770715
C 163.373883 245.613684 -0.308690917
C 164.614376 241.944455 -0.13375804
C 164.633617 243.392904 -0.227432174
C 165.913577 244.103183 -0.277703478
C 165.911739 245.543915 -0.306036134
C 167.081849 241.94154 -0.0937591999
C 167.150871 243.357192 -0.0852996134
C 168.394416 244.069839 -0.0612847981
C 168.42591 245.544934 -0.0604438766
C 169.58515 241.999396 0.0437111723
C 169.635017 243.406443 0.00141607809
C 170.909523 244.100692 0.0245017119
C 170.912493 245.566825 0.0453905672
C 172.080768 241.948289 -0.089611213
C 172.1445 243.388451 -0.0277514336
C 173.400055 244.072995 -0.0442814295
C 173.387463 245.54523 -0.0142699801
C 174.631621 241.914246 -0.0346629309
C 174.615869 243.366431 -0.0025662488
C 175.879784 244.11985 0.101504044
C 175.901726 245.55676 0.150081846
C 177.134174 241.972027 -0.0138900976
C 177.12849 243.40365 0.00880293866
C 178.398203 244.123027 0.205828833
C 178.423011 245.552492 0.192451873
C 179.663663 241.97102 0.182939907
C 179.639122 243.404373 0.247708204
C 180.850018 244.103356 0.229790568
C 180.885892 245.580859 0.213995763
C 182.104994 241.893473 0.0603404732
C 182.117786 243.38156 0.160499601
C 183.340973 244.088822 0.0590560187
C 183.372039 245.529799 0.0866655789
C 184.553876 241.926243 -0.152973247
C 184.575658 243.363488 -0.0562896012
C 185.83545 244.088304 -0.269078503
C 185.873439 245.500988 -0.257409138
C 187.065784 241.901865 -0.458901379
C 187.062339 243.356688 -0.381378315
C 188.318781 244.045067 -0.473901636
C 188.357439 245.461228 -0.418243711
C 189.549156 241.908773 -0.640485539
C 189.560009 243.347289 -0.62500118
C 190.786751 244.057391 -0.713853897
C 190.822764 245.494087 -0.645402672
C 192.055439 241.870444 -0.845633978
C 192.010093 243.320642 -0.840361089
C 193.283651 244.07036 -1.00550752
C 193.338595 245.521845 -0.84950091
C 194.582586 241.906197 -1.0936569
C 194.534082 243.323936 -1.11529202
C 195.790035 244.053058 -1.31232951
C 195.757955 245.499892 -1.29907821
C 197.061745 241.906361 -1.21812287
C 197.021057 243.356107 -1.3645946
C 198.255967 244.045506 -1.55576696
C 198.218174 245.438062 -1.65502732
C 199.552246 241.875847 -1.4806993
C 199.52521 243.301517 -1.71207208
C 200.761996 244.076333 -1.89266787
C 200.703748 245.531047 -1.98969059
C 202.010712 241.939173 -1.78309077
C 202.024243 243.35812 -1.8814786
C 203.265093 244.088187 -1.83368358
C 203.283128 245.514655 -1.88892318
C 204.473226 241.916595 -1.65058961
C 204.499165 243.317297 -1.76461877
C 205.767088 244.055321 -1.6391216
C 205.746945 245.465496 -1.63623956
C 206.981333 241.857723 -1.43505205
C 206.953596 243.338999 -1.46651174
C 208.230992 244.077366 -1.34067313
C 208.224312 245.492284 -1.31756933
C 209.532334 241.916351 -1.41103157
C 209.474248 243.351559 -1.38643195
C 210.696944 244.105913 -1.45533815
C 210.788327 245.560322 -1.37827584
C 211.991237 241.960556 -1.47933474
C 211.997551 243.385018 -1.55974128
C 213.280117 244.095966 -1.55048056
C 213.21842 245.552525 -1.42946166
C 214.517105 241.891669 -1.48214198
C 214.510523 243.342136 -1.46539072
C 215.742779 244.08515 -1.37694552
C 215.741853 245.521609 -1.3888569
C 216.99643 241.840631 -1.29905025
C 217.011775 243.338988 -1.31576392
C 218.21721 244.02301 -1.20375707
C 218.187406 245.476787 -1.17171828
C 219.472437 241.822396 -1.22200755
C 219.470939 243.29474 -1.25883026
C 220.753098 243.98533 -1.2398425
C 220.73758 245.415517 -1.2971376
C 221.974759 241.828513 -1.11945525
C 221.99073 243.247675 -1.13365564
C 223.213293 243.954612 -1.14504981
C 223.211606 245.41718 -1.15996186
C 224.47767 241.83134 -1.0530569
C 224.457308 243.259708 -1.12363536
C 225.667323 244.017251 -1.01937193
C 225.735333 245.479142 -0.974668735
C 226.957806 241.890919 -0.94265751
C 226.935707 243.345638 -0.935648215
C 228.204409 244.056897 -0.915206294
C 228.193276 245.512263 -0.858577473
C 229.428774 241.815536 -0.805602707
C 229.413544 243.307551 -0.845640247
C 230.66709 244.042783 -0.712374155
C 230.678655 245.517178 -0.699631582
C 231.928145 241.892055 -0.683555646
C 231.871217 243.335969 -0.671169791
C 233.182143 243.98781 -0.635416963
C 233.180373 245.468881 -0.660934097
C 234.431024 241.919352 -0.479627472
C 234.410237 243.313188 -0.475064284
C 235.677263 244.017122 -0.490653836
C 235.680627 245.402335 -0.61551634
C 236.941318 241.865534 -0.470843497
C 236.910381 243.336014 -0.446392744
C 238.206567 244.049316 -0.434782169
C 238.203081 245.479084 -0.497633626
C 239.44427 241.863773 -0.560316411
C 239.437238 243.338417 -0.469493879
C 240.670561 244.050348 -0.460069816
C 240.708338 245.438572 -0.397636117
C 241.913487 241.832912 -0.638017213
C 241.936931 243.329644 -0.46686618
C 243.21147 244.016031 -0.498489294
C 243.187673 245.485059 -0.630244857
C 244.400218 241.820074 -0.523003262
C 244.429763 243.293067 -0.494283316
C 245.686173 243.998886 -0.538101178
C 245.689074 245.442912 -0.576373283
C 246.918305 241.836688 -0.530991401
C 246.956053 243.28149 -0.47402986
C 248.217387 244.041161 -0.483845443
C 248.177468 245.489953 -0.471141245
C 0.038775839 246.163391 -0.443544881
C 249.404477 247.662117 -0.450494132
C 1.26278432 248.332607 -0.401097714
C 1.22523759 249.752063 -0.439070677
C 2.46394215 246.159377 -0.329279177
C 2.50882468 247.629221 -0.398116983
C 3.72358239 248.329482 -0.442208481
C 3.72023453 249.796977 -0.476297022
C 4.94293313 246.218453 -0.27344035
C 4.97931603 247.649656 -0.37158836
C 6.25261461 248.34824 -0.436679312
C 6.23483703 249.788151 -0.488914826
C 7.48847889 246.222072 -0.385452864
C 7.50013254 247.644006 -0.423762741
C 8.77885925 248.377428 -0.458808903
C 8.69890328 249.841103 -0.479956482
C 9.98593917 246.219513 -0.39885756
C 10.0148788 247.675327 -0.453347536
C 11.1834956 248.404072 -0.45165616
C 11.2211806 249.811896 -0.508714389
C 12.4301087 246.16967 -0.4687606
C 12.4395686 247.676507 -0.501786572
C 13.693584 248.334711 -0.638020748
C 13.704976 249.753454 -0.590454997
C 14.9670276 246.164875 -0.580331278
C 14.9406394 247.592029 -0.695584733
C 16.1628385 248.298136 -0.725672035
C 16.1718207 249.760484 -0.739898322
C 17.4756816 246.223906 -0.699732481
C 17.4327441 247.663071 -0.689481354
C 18.7207749 248.390622 -0.639680233
C 18.7072559 249.797963 -0.647535985
C 19.9292682 246.189884 -0.530581868
C 19.9880601 247.664346 -0.454805449
C 21.2291722 248.400917 -0.466797565
C 21.1917052 249.838967 -0.379426445
C 22.4535891 246.207516 -0.530762198
C 22.4338686 247.617087 -0.477894626
C 23.7245624 248.335636 -0.426852685
C 23.7239377 249.799736 -0.287849486
C 24.944129 246.226384 -0.615479512
C 24.9365413 247.623428 -0.474185859
C 26.1478446 248.381159 -0.436609091
C 26.1741934 249.800531 -0.246454821
C 27.3965534 246.212482 -0.464759974
C 27.3853992 247.646152 -0.411755536
C 28.6143574 248.385427 -0.369567742
C 28.6238376 249.818686 -0.277984597
C 29.8723507 246.269318 -0.608003871
C 29.8622974 247.700901 -0.481643126
C 31.0850633 248.432808 -0.341014382
C 31.0867303 249.887933 -0.312621743
C 32.395237 246.259199 -0.613196064
C 32.3643289 247.735703 -0.422871558
C 33.5970585 248.438472 -0.311616579
C 33.5992264 249.859754 -0.296426645
C 34.8394565 246.207545 -0.505888295
C 34.8425386 247.654126 -0.333225196
C 36.1443425 248.347372 -0.320916189
C 36.0487523 249.815213 -0.202233319
C 37.3549752 246.167696 -0.418551275
C 37.3176581 247.626404 -0.383180073
C 38.5716374 248.383662 -0.302857126
C 38.6267402 249.835773 -0.211151121
C 39.8471271 246.258874 -0.501757044
C 39.827908 247.683662 -0.429243781
C 41.068613 248.395594 -0.470439228
C 41.0696924 249.823748 -0.423476823
C 42.3423255 246.301189 -0.538430511
C 42.3175287 247.734194 -0.554647447
C 43.5528979 248.434959 -0.529661057
C 43.5794199 249.833779 -0.493068391
C 44.8628966 246.29672 -0.572214426
C 44.8321223 247.709189 -0.592986075
C 46.0951413 248.389905 -0.537590758
C 46.092621 249.806117 -0.46964504
C 47.3659728 246.25108 -0.639930769
C 47.3304467 247.66906 -0.578920749
C 48.5848951 248.418617 -0.463463542
C 48.5669456 249.861384 -0.342983042
C 49.8169934 246.219365 -0.45471112
C 49.8304517 247.672063 -0.418082044
C 51.0691601 248.390006 -0.253594641
C 51.074258 249.812773 -0.207565947
C 52.3578588 246.236688 -0.271208514
C 52.3103835 247.630925 -0.165951184
C 53.5546942 248.400957 -0.107196416
C 53.5593775 249.819302 -0.157055243
C 54.8431238 246.253065 -0.0806931164
C 54.8278874 247.703511 -0.017158232
C 56.0476484 248.447894 0.0433669486
C 56.0532294 249.902656 -0.0464808055
C 57.3510494 246.271153 0.0217862061
C 57.3416363 247.704576 0.112881518
C 58.5934102 248.429588 0.18233723
C 58.6029818 249.871603 0.112106219
C 59.8204496 246.272861 -0.0794652321
C 59.850023 247.7 0.057623069
C 61.092192 248.400764 0.0901714239
C 61.103142 249.878464 0.15270135
C 62.3134363 246.241862 -0.0968214081
C 62.3234897 247.732855 -0.0182875461
C 63.607475 248.427729 0.0199851553
C 63.6385095 249.872754 0.0644280762
C 64.8281733 246.292166 -0.163696518
C 64.8446046 247.741239 -0.0545835489
C 66.0561734 248.45813 -0.0574301749
C 66.1278973 249.889482 -0.0118556058
C 67.2843355 246.307239 -0.136065617
C 67.2945536 247.711514 -0.115413017
C 68.5402131 248.473796 -0.0813731106
C 68.5749861 249.909775 -0.018251981
C 69.7429236 246.312127 -0.172888569
C 69.7693273 247.743486 -0.0722480748
C 70.999765 248.427946 -0.12772695
C 71.0239464 249.889436 -0.0670232428
C 72.2803325 246.256575 -0.0140911481
C 72.2662175 247.731645 -0.0211576143
C 73.495616 248.43274 0.0837997862
C 73.5810268 249.896357 0.0119869295
C 74.7919584 246.274152 -0.0386345213
C 74.8068246 247.706495 0.0807355347
C 76.0475639 248.454434 -0.00461974416
C 76.0373299 249.904204 -0.0613077093
C 77.3453086 246.323022 -0.214615255
C 77.3107579 247.743294 -0.10528117
C 78.6156364 248.481571 -0.179278643
C 78.5592102 249.915531 -0.123808342
C 79.7995721 246.323099 -0.434069966
C 79.8071552 247.753464 -0.30886942
C 80.9962919 248.47986 -0.403019662
C 80.991474 249.847429 -0.326310355
C 82.2344413 246.297443 -0.738395655
C 82.2024866 247.761102 -0.719283609
C 83.4394592 248.458185 -0.824584285
C 83.4768074 249.901483 -0.697471471
C 84.730327 246.350192 -0.885571786
C 84.7002714 247.788388 -0.848721153
C 85.9691917 248.487218 -0.804335875
C 86.0003732 249.917428 -0.716941282
C 87.2540302 246.304933 -0.911954588
C 87.2264417 247.759062 -0.892141512
C 88.4916572 248.456259 -0.879256582
C 88.5011027 249.906436 -0.882197464
C 89.7352879 246.317369 -0.952236572
C 89.7271569 247.712419 -0.957548312
C 91.0087274 248.44682 -0.984909306
C 91.026695 249.87424 -0.957618431
C 92.2788245 246.259118 -0.686668548
C 92.2811633 247.695214 -0.84983802
C 93.5261284 248.394712 -0.832199589
C 93.4926319 249.852146 -0.751355144
C 94.7628567 246.269566 -0.755138225
C 94.7717012 247.683185 -0.784704545
C 96.0355127 248.387076 -0.856372518
C 95.995338 249.846186 -0.804714647
C 97.3048455 246.193703 -0.835052409
C 97.3031727 247.644214 -0.956438913
C 98.4848197 248.381846 -0.824535987
C 98.5043562 249.798891 -0.770836749
C 99.7462739 246.218985 -0.778488771
C 99.7801296 247.654802 -0.843285023
C 101.056888 248.411318 -0.653805607
C 101.031376 249.834889 -0.661577818
C 102.286913 246.220603 -0.675718648
C 102.288188 247.656929 -0.625380048
C 103.521193 248.380399 -0.549792715
C 103.489967 249.851099 -0.527738175
C 104.761408 246.206803 -0.470911439
C 104.777217 247.646689 -0.431703241
C 105.995184 248.450004 -0.323785285
C 105.959633 249.886771 -0.298899886
C 107.215956 246.249538 -0.269544986
C 107.238731 247.704074 -0.325183572
C 108.482256 248.359404 -0.196287511
C 108.451983 249.830892 -0.213198668
C 109.716103 246.184461 -0.120541225
C 109.731043 247.642607 -0.0899237317
C 110.995954 248.410124 -0.0261940087
C 111.000716 249.855876 -0.116292885
C 112.201654 246.194151 0.019631329
C 112.200426 247.674158 0.0440978492
C 113.4997 248.386571 0.0408943833
C 113.456694 249.827664 -0.0945351512
C 114.71776 246.216628 0.0237936271
C 114.727872 247.683554 0.041764857
C 115.965586 248.365149 0.0689809836
C 115.984449 249.763693 0.0396206048
C 117.223836 246.216412 -0.0440087416
C 117.192358 247.656383 0.0730442391
C 118.423028 248.382034 -0.045059031
C 118.432569 249.783766 -0.0041591994
C 119.679458 246.197418 -0.154862949
C 119.682534 247.630073 -0.0591137833
C 120.962519 248.353983 -0.0309299866
C 120.941391 249.838986 -0.0391623379
C 122.198395 246.206211 -0.209325307
C 122.223173 247.674189 -0.142605652
C 123.452835 248.40699 -0.186380614
C 123.456584 249.838061 -0.13014785
C 124.696638 246.190882 -0.284115569
C 124.68329 247.63864 -0.27883409
C 125.931756 248.403005 -0.351797843
C 125.938669 249.844747 -0.229528965
C 127.177514 246.20864 -0.38474651
C 127.158081 247.680749 -0.444977078
C 128.426413 248.383249 -0.40443868
C 128.426475 249.827644 -0.312768791
C 129.668165 246.200061 -0.309252834
C 129.676018 247.655976 -0.37233821
C 130.915336 248.346304 -0.503814335
C 130.898723 249.782198 -0.475760561
C 132.175878 246.1769 -0.326656508
C 132.156247 247.621654 -0.503978789
C 133.395092 248.34483 -0.649149794
C 133.452618 249.803213 -0.616202262
C 134.67015 246.200429 -0.502293142
C 134.673744 247.616804 -0.679450519
C 135.934987 248.360369 -0.627957745
C 135.939293 249.847966 -0.523482781
C 137.202145 246.243219 -0.445371228
C 137.214847 247.675691 -0.62857724
C 138.472606 248.364988 -0.608059853
C 138.495036 249.798182 -0.602540832
C 139.702311 246.218073 -0.376262943
C 139.686695 247.659297 -0.522408208
C 140.945902 248.376257 -0.596686246
C 140.952446 249.826141 -0.580348235
C 142.22146 246.195005 -0.454458992
C 142.194486 247.631363 -0.567098894
C 143.468853 248.386493 -0.587383549
C 143.508121 249.80781 -0.562876153
C 144.697248 246.217449 -0.475072034
C 144.710773 247.697627 -0.511060499
C 145.921449 248.432009 -0.605877368
C 145.925607 249.861664 -0.61435531
C 147.181811 246.226656 -0.506226434
C 147.116485 247.658052 -0.572110817
C 148.437868 248.403294 -0.618205868
C 148.391928 249.833367 -0.619288344
C 149.739131 246.227846 -0.454186171
C 149.710777 247.682512 -0.554697274
C 150.978068 248.417154 -0.558316978
C 150.919398 249.84793 -0.587183777
C 152.200509 246.249028 -0.451770382
C 152.168343 247.676197 -0.507068481
C 153.409955 248.441221 -0.542476642
C 153.467508 249.913694 -0.649805616
C 154.659638 246.285414 -0.381668696
C 154.664243 247.727746 -0.559061863
C 155.909801 248.472138 -0.591050026
C 155.94072 249.909129 -0.632305235
C 157.156904 246.304558 -0.414118574
C 157.135388 247.725146 -0.470530393
C 158.405603 248.415918 -0.488184027
C 158.430399 249.893791 -0.565172802
C 159.68911 246.28233 -0.488006595
C 159.642858 247.758883 -0.450399075
C 160.966496 248.437123 -0.413601278
C 160.925286 249.865305 -0.439840941
C 162.114021 246.273657 -0.299368636
C 162.145338 247.719372 -0.324594208
C 163.381766 248.437569 -0.324609438
C 163.41847 249.905363 -0.291341269
C 164.654926 246.293563 -0.368781238
C 164.601358 247.684455 -0.301841368
C 165.875342 248.433276 -0.294938088
C 165.905744 249.828066 -0.284687566
C 167.161833 246.220694 -0.201843095
C 167.140052 247.689021 -0.236211627
C 168.408791 248.397003 -0.211164027
C 168.421959 249.847741 -0.141601417
C 169.690685 246.268775 0.0281524437
C 169.674817 247.724248 -0.118506188
C 170.879603 248.428951 -0.079427704
C 170.873266 249.856852 -0.125857337
C 172.142206 246.275362 -0.0043216456
C 172.152204 247.726972 -0.0289411126
C 173.448757 248.435563 -0.0134233121
C 173.410818 249.866665 -0.0179440199
C 174.664586 246.249029 0.0287145485
C 174.687832 247.653826 0.0474022913
C 175.893643 248.373196 0.136070823
C 175.89903 249.813061 0.221661395
C 177.148232 246.258465 0.193700102
C 177.169998 247.682205 0.182253186
C 178.368161 248.44323 0.316687691
C 178.367685 249.916048 0.413542363
C 179.683068 246.26489 0.253505642
C 179.635596 247.711647 0.374135968
C 180.865616 248.478233 0.360593596
C 180.904794 249.888994 0.324555803
C 182.110619 246.274057 0.178306555
C 182.073612 247.697391 0.157364819
C 183.365785 248.378924 0.0658366081
C 183.367538 249.844003 -0.0231160641
C 184.623941 246.243547 -0.0841180898
C 184.644846 247.684764 -0.0144086402
C 185.818676 248.419522 -0.0879785389
C 185.795512 249.856713 -0.161341734
C 187.111654 246.254795 -0.339111314
C 187.093971 247.73072 -0.28516035
C 188.329816 248.448101 -0.381118197
C 188.324636 249.857879 -0.43633724
C 189.576855 246.220141 -0.471905642
C 189.552896 247.631223 -0.510723907
C 190.790681 248.352876 -0.763159719
C 190.781089 249.806443 -0.761199707
C 192.062508 246.20523 -0.840734482
C 192.05053 247.65134 -0.890245172
C 193.259906 248.352503 -0.976817654
C 193.260102 249.815187 -0.887443607
C 194.554753 246.208799 -1.13361217
C 194.493554 247.617309 -1.09771857
C 195.766319 248.364195 -1.27857614
C 195.754219 249.869606 -1.22694504
C 197.019879 246.168297 -1.43195949
C 197.000239 247.617123 -1.44250491
C 198.236325 248.417927 -1.62406971
C 198.267736 249.841496 -1.50811131
C 199.480362 246.180488 -1.86440361
C 199.523853 247.669749 -1.84683734
C 200.785135 248.372965 -1.87401365
C 200.737442 249.837926 -1.61605166
C 202.033187 246.225465 -1.975249
C 202.016619 247.670419 -1.87992984
C 203.251614 248.360608 -1.63700725
C 203.196262 249.846654 -1.52436426
C 204.512198 246.210587 -1.68110684
C 204.493365 247.657965 -1.57690343
C 205.738848 248.404991 -1.49732857
C 205.750908 249.867727 -1.38218848
C 207.015904 246.176535 -1.45873617
C 206.972264 247.634323 -1.37792212
C 208.236134 248.415093 -1.30395417
C 208.248099 249.829578 -1.26294012
C 209.489176 246.21806 -1.25429056
C 209.489423 247.684445 -1.23416548
C 210.772885 248.43632 -1.13857848
C 210.748495 249.837303 -1.21541546
C 211.991874 246.239163 -1.36572443
C 211.976865 247.645137 -1.23438072
C 213.232924 248.400881 -1.31523081
C 213.186557 249.85583 -1.24342189
C 214.505246 246.261676 -1.42840796
C 214.519411 247.712759 -1.42116879
C 215.744427 248.411904 -1.35503805
C 215.735797 249.844319 -1.32482598
C 216.975286 246.193907 -1.32464444
C 216.985273 247.644861 -1.37465272
C 218.248383 248.347088 -1.37234607
C 218.282346 249.793063 -1.38318081
C 219.428044 246.155489 -1.17186087
C 219.485824 247.588328 -1.24378137
C 220.734196 248.346365 -1.3062092
C 220.722469 249.7923 -1.35088184
C 221.983315 246.12266 -1.32297047
C 221.943898 247.607698 -1.32855553
C 223.220079 248.338328 -1.23924513
C 223.194717 249.757507 -1.19954634
C 224.453301 246.184029 -1.08839782
C 224.474329 247.622122 -1.24517009
C 225.704914 248.42625 -1.08710796
C 225.690051 249.860321 -1.11491341
C 226.950533 246.246425 -0.842759675
C 226.953088 247.691137 -0.906570271
C 228.193254 248.393415 -0.789020201
C 228.182343 249.841391 -0.841692039
C 229.450454 246.222896 -0.77295646
C 229.462285 247.713081 -0.772694544
C 230.745279 248.410719 -0.779423986
C 230.650154 249.851874 -0.821547635
C 231.942354 246.213204 -0.694692158
C 231.97715 247.63567 -0.780330825
C 233.227954 248.367374 -0.752033677
C 233.201885 249.807088 -0.698250924
C 234.456107 246.161049 -0.648907999
C 234.460308 247.618037 -0.69901693
C 235.678624 248.335054 -0.606570337
C 235.678728 249.782811 -0.575947345
C 236.928705 246.171353 -0.542356878
C 236.915212 247.636868 -0.45478338
C 238.162169 248.380321 -0.333981048
C 238.213495 249.805627 -0.306278755
C 239.439356 246.212566 -0.429217001
C 239.417011 247.614787 -0.31751305
C 240.698757 248.340908 -0.325239523
C 240.75592 249.781853 -0.249877087
C 241.921805 246.152752 -0.426296915
C 241.977344 247.603678 -0.324280701
C 243.176736 248.331632 -0.281877986
C 243.169558 249.756384 -0.265848142
C 244.449058 246.169036 -0.624160839
C 244.426 247.580106 -0.388331976
C 245.648709 248.325082 -0.239749608
C 245.640894 249.790335 -0.287007977
C 246.911083 246.189324 -0.487722786
C 246.924964 247.645249 -0.365952698
C 248.175523 248.332166 -0.404006465
C 248.172745 249.781178 -0.450519489
C 0.018078991 250.500439 -0.403915576
C 0.00490151374 251.916963 -0.409057323
C 1.21211012 252.710322 -0.452759042
C 1.196561 254.12983 -0.503156116
C 2.45818548 250.50772 -0.444443245
C 2.46061228 251.947407 -0.450872953
C 3.71371506 252.658978 -0.440047754
C 3.73573921 254.16923 -0.445027882
C 4.98863388 250.479152 -0.425483066
C 4.99558669 251.992369 -0.453803667
C 6.22862093 252.658797 -0.510563018
C 6.2010928 254.137086 -0.421668851
C 7.43861004 250.53191 -0.421555956
C 7.50822912 251.960455 -0.393355657
C 8.75246619 252.696563 -0.461439633
C 8.73459939 254.109165 -0.47451454
C 9.96407605 250.538082 -0.549138869
C 9.97105194 251.962783 -0.58003427
C 11.2035348 252.65954 -0.552342542
C 11.231761 254.115629 -0.526564207
C 12.4449763 250.547696 -0.451320192
C 12.4652384 251.953846 -0.466706225
C 13.7170304 252.678928 -0.517175675
C 13.7270448 254.099471 -0.505270589
C 14.9354116 250.492306 -0.679417528
C 14.9939548 251.918481 -0.590487852
C 16.2341309 252.669791 -0.470676989
C 16.2417964 254.10304 -0.455186828
C 17.4599495 250.49782 -0.744809529
C 17.4710502 251.924286 -0.524556653
C 18.7080829 252.678914 -0.468852552
C 18.7006748 254.099117 -0.477117038
C 19.9515709 250.508016 -0.487170583
C 19.9281439 251.97102 -0.384208098
C 21.1710905 252.693949 -0.406893913
C 21.2110033 254.15576 -0.46085677
C 22.4440606 250.59747 -0.275725643
C 22.426738 252.012846 -0.298214311
C 23.6552031 252.708466 -0.292028316
C 23.6866098 254.155297 -0.369924161
C 24.9303122 250.525518 -0.224123335
C 24.8935265 251.977923 -0.234410713
C 26.1615636 252.725253 -0.314051998
C 26.1303048 254.16677 -0.387606449
C 27.3722955 250.536013 -0.251438184
C 27.367849 251.977309 -0.271627073
C 28.5763379 252.743422 -0.310224212
C 28.6008689 254.195921 -0.325706216
C 29.8415381 250.588509 -0.270478565
C 29.8342061 252.02308 -0.282644158
C 31.1382449 252.732455 -0.241832485
C 31.112905 254.180844 -0.218236922
C 32.3188448 250.56295 -0.269195763
C 32.3789164 252.010568 -0.257810873
C 33.5732075 252.741976 -0.245852399
C 33.6375268 254.182389 -0.0913973543
C 34.804538 250.571354 -0.225086305
C 34.8165259 252.010074 -0.198743669
C 36.1031248 252.736311 -0.236287616
C 36.078006 254.134391 -0.1450865
C 37.3606815 250.555111 -0.203620102
C 37.3286962 251.974337 -0.234379446
C 38.5820426 252.669661 -0.413694277
C 38.57302 254.152106 -0.45472761
C 39.8330022 250.545358 -0.292572184
C 39.7989776 251.971152 -0.355049349
C 41.0001949 252.69451 -0.346574988
C 41.0706211 254.15815 -0.486855586
C 42.3188458 250.55605 -0.53693538
C 42.2661061 252.016403 -0.481744096
C 43.516165 252.751123 -0.497567354
C 43.5496795 254.195672 -0.45108028
C 44.8293205 250.558444 -0.474694057
C 44.7918272 251.996075 -0.472445502
C 46.0071793 252.728136 -0.409843188
C 46.0866537 254.178893 -0.453841259
C 47.3349151 250.548527 -0.36153639
C 47.254776 252.029676 -0.296095045
C 48.5315023 252.697951 -0.263284486
C 48.5481362 254.179553 -0.40604007
C 49.8442679 250.550625 -0.203650845
C 49.8453543 251.975565 -0.223117879
C 51.0831797 252.75022 -0.280245707
C 51.0802419 254.160648 -0.355156278
C 52.2944135 250.532989 -0.217466128
C 52.3390776 251.962641 -0.220083958
C 53.5717216 252.722299 -0.165096584
C 53.5925244 254.162732 -0.266093112
C 54.7970602 250.542517 -0.111251253
C 54.8433373 251.974117 -0.139835641
C 56.0913376 252.736402 -0.167676266
C 56.1188239 254.188874 -0.260927078
C 57.3284208 250.585841 0.00962491752
C 57.3415955 252.045775 -0.000874497799
C 58.5982258 252.732181 0.0563135889
C 58.5792322 254.168902 0.0395699288
C 59.8319774 250.628693 0.141473243
C 59.8446374 252.055582 0.129961225
C 61.0918592 252.734971 0.0932566463
C 61.0594857 254.157576 0.023853723
C 62.3679088 250.599861 0.0455938378
C 62.3501182 252.054122 0.0193651959
C 63.6017682 252.773996 0.078593021
C 63.6113338 254.218142 0.0463039084
C 64.8704127 250.601587 0.038000677
C 64.867676 252.043259 0.114199531
C 66.1060627 252.795155 0.0914839033
C 66.0816632 254.199509 0.114090694
C 67.3192261 250.633912 -0.00548203496
C 67.3109738 252.091931 0.0245164003
C 68.5671052 252.795685 -0.00461004186
C 68.5814489 254.221776 -0.0543099808
C 69.7938323 250.611323 -0.00124741032
C 69.8077268 252.03851 0.073915734
C 71.0501369 252.790572 0.0026405167
C 71.0732214 254.209344 -0.113962265
C 72.2974584 250.576335 -0.058707239
C 72.2662544 252.023167 -0.0656994306
C 73.5347334 252.775285 -0.161665636
C 73.556849 254.232225 -0.0898373321
C 74.7764839 250.635277 -0.0528954093
C 74.7631932 252.043711 -0.18993095
C 75.9969942 252.822172 -0.249536879
C 76.010904 254.234056 -0.21637432
C 77.2843625 250.574903 -0.165658355
C 77.2762617 252.032124 -0.159869916
C 78.5265366 252.779533 -0.194061013
C 78.5003804 254.168178 -0.237722784
C 79.818646 250.647977 -0.132094095
C 79.7769878 252.048547 -0.175625065
C 80.9974431 252.761089 -0.370894069
C 80.9967705 254.235281 -0.408736419
C 82.2357485 250.604018 -0.556777249
C 82.2361196 252.045375 -0.567456334
C 83.4821365 252.733439 -0.60134822
C 83.4658652 254.14727 -0.669806814
C 84.7652853 250.618066 -0.662784097
C 84.743702 252.035723 -0.602791299
C 85.9947574 252.749872 -0.790082741
C 85.9793618 254.183276 -0.87381807
C 87.2540351 250.612812 -0.80605672
C 87.2676964 252.046553 -0.820460421
C 88.5355395 252.750524 -0.962100165
C 88.4971002 254.203079 -1.11232079
C 89.7777801 250.603146 -1.03129953
C 89.7919559 252.082133 -1.06405845
C 91.0229792 252.800817 -1.00747264
C 91.0402232 254.198836 -1.1723839
C 92.2519378 250.585482 -0.818977
C 92.2763312 252.047463 -0.927012695
C 93.5335357 252.741252 -0.927354614
C 93.5549088 254.155232 -0.984904292
C 94.7378107 250.568965 -0.793190152
C 94.7551948 252.025285 -0.799052661
C 96.0243449 252.71885 -0.827792281
C 96.0929192 254.198122 -0.844545261
C 97.2823917 250.570335 -0.81473902
C 97.2012818 252.025817 -0.745238946
C 98.490065 252.712845 -0.652996883
C 98.5459454 254.155421 -0.655172588
C 99.7088556 250.519843 -0.690607447
C 99.6893653 251.977652 -0.626497614
C 100.997974 252.687887 -0.590784656
C 100.988055 254.125616 -0.629597279
C 102.240172 250.602755 -0.612086398
C 102.217875 252.01477 -0.525580162
C 103.523371 252.678947 -0.374275249
C 103.445603 254.10156 -0.389502825
C 104.725878 250.602935 -0.391785657
C 104.771888 252.004418 -0.319689586
C 106.017589 252.774058 -0.291455251
C 105.982405 254.183816 -0.33816495
C 107.197032 250.616554 -0.228272125
C 107.30564 252.048097 -0.212578317
C 108.481771 252.761129 -0.159911749
C 108.476347 254.184604 -0.196239593
C 109.692508 250.568015 -0.191920652
C 109.686207 251.995491 -0.107828198
C 110.921336 252.712464 -0.00447221862
C 110.935215 254.203135 -0.0244074076
C 112.208196 250.585245 -0.102489236
C 112.193985 251.995898 -0.0193463869
C 113.433738 252.695605 -0.0521076501
C 113.434773 254.138033 0.0414118756
C 114.704936 250.506702 -0.0354425565
C 114.661333 251.966167 -0.0228001171
C 115.926742 252.715984 0.0780481897
C 115.913935 254.131395 0.00296545619
C 117.195652 250.525679 0.0862757236
C 117.154206 251.956775 0.0911056564
C 118.401017 252.653457 0.150673002
C 118.445124 254.103879 0.0696142134
C 119.688589 250.508077 0.0320780574
C 119.654991 251.965016 0.11920571
C 120.949605 252.705521 -0.0197103478
C 120.944102 254.153451 -0.0808571536
C 122.218341 250.536001 -0.0786736204
C 122.161605 252.005665 -0.165866692
C 123.399127 252.759228 -0.134721835
C 123.423561 254.163105 -0.16363303
C 124.686786 250.538793 -0.202023859
C 124.674124 252.024649 -0.115419491
C 125.952286 252.739247 -0.0484904378
C 125.931606 254.153799 -0.0597218144
C 127.190069 250.56361 -0.182338353
C 127.17823 252.008988 -0.101054905
C 128.493463 252.672032 -0.223031398
C 128.450765 254.107895 -0.182108
C 129.669381 250.50771 -0.377210087
C 129.730363 251.973479 -0.27868907
C 130.986975 252.722889 -0.264686431
C 130.973971 254.151397 -0.252874028
C 132.172645 250.557558 -0.464316993
C 132.174773 252.004617 -0.274143668
C 133.503165 252.728608 -0.277850972
C 133.506635 254.156984 -0.350138226
C 134.699248 250.547357 -0.46273357
C 134.739195 251.983918 -0.333448002
C 136.002261 252.71578 -0.347565336
C 135.98471 254.138711 -0.409661601
C 137.24234 250.54608 -0.54993716
C 137.244411 251.964983 -0.492830182
C 138.485496 252.71012 -0.548796752
C 138.468827 254.158323 -0.508021706
C 139.703693 250.542502 -0.63522916
C 139.741343 251.999781 -0.603419448
C 140.919945 252.678342 -0.527176272
C 141.002773 254.154714 -0.490201822
C 142.217714 250.531857 -0.479598425
C 142.226478 251.973778 -0.534198253
C 143.430001 252.742302 -0.461923652
C 143.486282 254.175015 -0.477017582
C 144.67884 250.564585 -0.535407021
C 144.694692 252.044405 -0.4698504
C 145.961784 252.72292 -0.471244306
C 145.93602 254.148345 -0.502489553
C 147.177504 250.540189 -0.601553467
C 147.216896 251.996197 -0.516737027
C 148.503352 252.709821 -0.490920714
C 148.472183 254.161378 -0.530134253
C 149.64636 250.529119 -0.590902057
C 149.75749 251.955584 -0.519147788
C 150.92682 252.752882 -0.595838281
C 150.953159 254.188444 -0.590611336
C 152.175635 250.61464 -0.635102707
C 152.193222 252.043701 -0.668946641
C 153.411608 252.704119 -0.787009137
C 153.45726 254.1453 -0.750342682
C 154.692706 250.600312 -0.66573994
C 154.697559 252.003392 -0.862348906
C 155.96997 252.721179 -0.950329393
C 155.917903 254.157961 -0.918121095
C 157.19609 250.576616 -0.686141135
C 157.218446 252.000687 -0.83866447
C 158.458052 252.7447 -0.730915683
C 158.446756 254.176292 -0.730215676
C 159.703031 250.574789 -0.544361387
C 159.73603 252.020806 -0.572412488
C 160.950711 252.732503 -0.451354897
C 160.928393 254.172467 -0.448186737
C 162.146155 250.599908 -0.364206834
C 162.159716 252.017617 -0.35547147
C 163.452665 252.766966 -0.292117435
C 163.459432 254.20819 -0.368750307
C 164.697665 250.595448 -0.267216781
C 164.692359 252.049707 -0.234342236
C 165.919066 252.755143 -0.260675444
C 165.909172 254.182706 -0.205494375
C 167.160409 250.533575 -0.2658072
C 167.152165 251.995496 -0.341064681
C 168.395634 252.732358 -0.280365588
C 168.378369 254.162476 -0.156643386
C 169.67132 250.617008 -0.114941154
C 169.656066 252.020571 -0.113282274
C 170.903222 252.712122 -0.0498851941
C 170.901754 254.1772 0.0244632033
C 172.164392 250.576811 -0.130578385
C 172.151399 252.059037 -0.0923837358
C 173.392316 252.760629 0.096665732
C 173.327437 254.205334 0.312676324
C 174.669274 250.62671 0.0445848049
C 174.664366 252.04868 0.0710523443
C 175.856867 252.773023 0.361524299
C 175.821955 254.217408 0.441557425
C 177.127716 250.63875 0.40300211
C 177.14099 252.059155 0.483334432
C 178.368737 252.794257 0.516245627
C 178.379549 254.221586 0.513696496
C 179.618116 250.598013 0.443374115
C 179.607959 252.064659 0.395122444
C 180.84221 252.774081 0.273643621
C 180.842274 254.210127 0.284158859
C 182.126494 250.627053 0.0732477352
C 182.073276 252.076215 0.0936193228
C 183.328826 252.772213 -0.106435719
C 183.282606 254.2243 -0.134569578
C 184.599212 250.570195 -0.146288522
C 184.544464 252.006231 -0.222135744
C 185.764447 252.749951 -0.335512669
C 185.764138 254.152273 -0.357697723
C 187.049625 250.566793 -0.364509535
C 187.065895 252.056871 -0.391577216
C 188.261768 252.74619 -0.534923179
C 188.271966 254.165559 -0.615231678
C 189.562117 250.56383 -0.603061779
C 189.509203 252.027273 -0.631283594
C 190.779638 252.768001 -0.713844827
C 190.783153 254.202477 -0.727989612
C 192.036448 250.533128 -0.771126336
C 192.039305 252.012625 -0.719560724
C 193.271109 252.760959 -0.909639206
C 193.236176 254.191295 -1.03370236
C 194.463613 250.521738 -1.06528651
C 194.458648 252.006861 -1.03438088
C 195.790968 252.725088 -1.15801458
C 195.737655 254.197751 -1.2226651
C 197.027286 250.599367 -1.31589663
C 197.029293 252.053692 -1.26441352
C 198.266333 252.73699 -1.24376226
C 198.211115 254.185713 -1.31685796
C 199.499102 250.523939 -1.49156938
C 199.488885 251.998745 -1.4229041
C 200.753235 252.727583 -1.34778666
C 200.743537 254.155794 -1.42756064
C 202.015659 250.593307 -1.58468082
C 201.954704 251.980334 -1.376922
C 203.209498 252.740244 -1.34954707
C 203.248545 254.17599 -1.39484475
C 204.461143 250.507844 -1.40736361
C 204.457316 252.04628 -1.37823232
C 205.751447 252.742709 -1.35709639
C 205.790189 254.163812 -1.38887407
C 207.01603 250.576659 -1.33038772
C 207.031573 252.019948 -1.31203838
C 208.241694 252.7872 -1.3099733
C 208.263487 254.220556 -1.43052559
C 209.500396 250.543225 -1.2707234
C 209.474952 251.983566 -1.34615221
C 210.705782 252.743473 -1.48897741
C 210.724866 254.121629 -1.59237251
C 211.956981 250.589379 -1.28906966
C 211.969315 252.012938 -1.42557834
C 213.22225 252.668841 -1.45984784
C 213.224894 254.138712 -1.46253285
C 214.518067 250.57108 -1.3680621
C 214.504653 252.001162 -1.39240656
C 215.734876 252.733862 -1.34877818
C 215.745269 254.137548 -1.3547075
C 217.002668 250.535573 -1.25080473
C 216.96271 251.995222 -1.35626955
C 218.194374 252.710745 -1.36963271
C 218.202978 254.156197 -1.34033865
C 219.491326 250.556735 -1.391512
C 219.408629 251.982217 -1.37656998
C 220.668435 252.720611 -1.28541317
C 220.668958 254.205053 -1.26385389
C 221.929489 250.501573 -1.27798745
C 221.900503 251.984327 -1.29027384
C 223.190544 252.690293 -1.13291149
C 223.158951 254.146388 -1.11300151
C 224.457586 250.568734 -1.08640596
C 224.452556 251.978643 -1.1644356
C 225.709641 252.711702 -1.11303697
C 225.675965 254.190765 -1.08008123
C 226.945649 250.5572 -0.924723146
C 226.956175 252.000584 -0.997937334
C 228.195345 252.71617 -0.855026954
C 228.217441 254.118503 -0.836099983
C 229.406843 250.589124 -0.812251896
C 229.442173 252.037565 -0.779085095
C 230.702306 252.703507 -0.714327641
C 230.721498 254.167318 -0.753390289
C 231.932828 250.53578 -0.781371666
C 231.951222 251.96164 -0.732674115
C 233.1914 252.673295 -0.724913139
C 233.200613 254.134569 -0.683321671
C 234.465412 250.539605 -0.642900734
C 234.459299 251.968309 -0.622374971
C 235.650151 252.673374 -0.476017566
C 235.656528 254.129484 -0.462219246
C 236.910806 250.469009 -0.438843631
C 236.908479 251.899466 -0.457713946
C 238.120431 252.651665 -0.322996386
C 238.108326 254.117435 -0.364084345
C 239.465547 250.491441 -0.27955449
C 239.403318 251.946103 -0.302000439
C 240.690898 252.650704 -0.352165996
C 240.684004 254.094879 -0.275854626
C 241.948211 250.500019 -0.283649395
C 241.929452 251.919131 -0.270803088
C 243.129817 252.649427 -0.247809829
C 243.187871 254.07292 -0.238267508
C 244.410754 250.484859 -0.277000693
C 244.382134 251.923152 -0.289831424
C 245.620315 252.653687 -0.382475455
C 245.636198 254.15679 -0.306343989
C 246.894068 250.478889 -0.401591431
C 246.902864 251.912713 -0.421372293
C 248.159371 252.675055 -0.409877883
C 248.131889 254.111362 -0.381621079
C 249.395813 254.873192 -0.318600338
C 0.00752843438 256.34492 -0.276441958
C 1.23117022 257.050292 -0.223921639
C 1.24535097 258.469917 -0.110930527
C 2.45514781 254.861033 -0.44833563
C 2.41262159 256.290864 -0.306698707
C 3.67683738 257.008128 -0.327109777
C 3.71228263 258.452373 -0.242842799
C 4.96136741 254.838192 -0.442690048
C 4.91263505 256.2889 -0.433028068
C 6.21250527 256.966655 -0.433749123
C 6.21036189 258.396191 -0.292527759
C 7.44100877 254.810627 -0.360967108
C 7.47767564 256.250432 -0.359394044
C 8.71598537 256.994298 -0.388776788
C 8.6932328 258.415773 -0.229298543
C 9.98395337 254.879016 -0.496083127
C 9.95620191 256.309291 -0.462920871
C 11.1891254 257.014481 -0.480331032
C 11.2145733 258.484173 -0.35338792
C 12.4915558 254.802618 -0.531982783
C 12.4506971 256.260242 -0.523489974
C 13.6830565 256.97386 -0.429527777
C 13.6814289 258.402081 -0.344077774
C 14.9505103 254.827079 -0.455914477
C 14.8809065 256.276932 -0.325207005
C 16.1954661 257.012159 -0.254096482
C 16.1908178 258.422025 -0.229663973
C 17.4753982 254.832998 -0.354540474
C 17.4424151 256.283387 -0.320671794
C 18.6438979 257.009228 -0.427037653
C 18.6475995 258.457074 -0.36154325
C 19.964196 254.890651 -0.46802455
C 19.9387186 256.3557 -0.439709369
C 21.2072706 257.034851 -0.436876595
C 21.1702197 258.472152 -0.396643683
C 22.4723256 254.859795 -0.411134492
C 22.4513771 256.307705 -0.318534157
C 23.6520337 257.076614 -0.302275748
C 23.6553579 258.468473 -0.267137331
C 24.8915243 254.917811 -0.384900144
C 24.8892597 256.324639 -0.377443936
C 26.1474592 257.046618 -0.230824627
C 26.1241765 258.473314 -0.163094047
C 27.3437324 254.912525 -0.26070843
C 27.3357793 256.3397 -0.164722699
C 28.5828017 257.053381 -0.0634415259
C 28.5838212 258.505004 0.0678775182
C 29.8649957 254.919474 -0.185025386
C 29.8159678 256.348293 -0.0688693316
C 31.0740624 257.021259 0.0352243728
C 31.0904038 258.482647 0.0249842215
C 32.3956282 254.894065 -0.021419198
C 32.3408555 256.303795 0.0864557832
C 33.5280029 257.039424 -0.0953418757
C 33.5618015 258.48943 -0.152479091
C 34.8730835 254.852408 -0.0825810802
C 34.8172748 256.286921 -0.0900108653
C 36.0148784 257.02957 -0.173480306
C 36.1090419 258.460801 -0.224746356
C 37.3220373 254.852843 -0.335105399
C 37.2847883 256.306605 -0.294510927
C 38.5535902 257.030015 -0.351253405
C 38.5943505 258.476279 -0.355983787
C 39.8304253 254.851967 -0.446150155
C 39.8148066 256.311294 -0.46281479
C 41.0165991 257.004351 -0.510058688
C 41.0782796 258.4715 -0.533056183
C 42.2782962 254.849854 -0.504912339
C 42.2894874 256.315951 -0.613075415
C 43.5624502 256.995542 -0.584219686
C 43.5650142 258.44583 -0.468066021
C 44.8320601 254.897409 -0.482531788
C 44.8588819 256.33051 -0.55219706
C 46.1119603 257.082503 -0.492809672
C 46.0792948 258.50532 -0.508791856
C 47.3207354 254.906463 -0.429190937
C 47.3612904 256.384566 -0.535487653
C 48.596964 257.111808 -0.550892083
C 48.6387709 258.543831 -0.546534231
C 49.800564 254.906682 -0.420959093
C 49.8392717 256.34498 -0.448932609
C 51.0627696 257.067096 -0.361708813
C 51.0971034 258.54637 -0.346962857
C 52.3701487 254.943535 -0.317104989
C 52.3465048 256.350197 -0.313181984
C 53.5872199 257.108912 -0.223295653
C 53.555144 258.529292 -0.261729708
C 54.8416776 254.908667 -0.252806237
C 54.8457081 256.396239 -0.226040494
C 56.0711951 257.096315 -0.167229315
C 56.0765156 258.526422 -0.172779565
C 57.388935 254.891456 -0.13382583
C 57.3450019 256.341883 -0.1142169
C 58.5828065 257.084354 -0.0745340571
C 58.6009903 258.534409 -0.0237545717
C 59.788768 254.867557 0.0246319018
C 59.7777182 256.332253 0.0164736195
C 61.0524737 257.029466 0.109984089
C 61.1042566 258.491757 0.173064186
C 62.322623 254.920714 0.0742883672
C 62.2904794 256.379516 0.0792622063
C 63.5610222 257.085358 0.0899063582
C 63.5558313 258.501627 0.187103081
C 64.8764017 254.91345 0.0694998385
C 64.821513 256.325314 0.0421173364
C 66.0763231 257.079889 0.0653696257
C 66.0737104 258.52876 0.235082802
C 67.3500603 254.901549 0.0403606829
C 67.2967281 256.35667 0.0959966358
C 68.5735462 257.124609 0.145184199
C 68.5659095 258.554083 0.309796059
C 69.8341349 254.88832 -0.105218714
C 69.7864686 256.367474 -0.00585601377
C 71.0205005 257.087742 0.0445688037
C 71.0372942 258.531647 0.137196517
C 72.3244421 254.957625 -0.0767676436
C 72.3084611 256.382199 0.0118486778
C 73.5368442 257.07243 0.0275190048
C 73.5077636 258.450822 0.0740351073
C 74.8029773 254.927443 -0.129186915
C 74.7854254 256.394016 -0.0317767892
C 76.0166343 257.077594 -0.0749066651
C 76.0619246 258.503921 -0.0441693238
C 77.2534056 254.908743 -0.251739451
C 77.2466747 256.331345 -0.178416497
C 78.5138352 257.096536 -0.218814098
C 78.5489131 258.524535 -0.212068031
C 79.746472 254.896126 -0.229038666
C 79.7596716 256.329025 -0.215844371
C 81.0661271 257.049027 -0.412110812
C 81.0679205 258.460164 -0.3744664
C 82.2385952 254.898111 -0.553116672
C 82.2795369 256.334376 -0.579426024
C 83.5260098 257.074186 -0.681172516
C 83.5318861 258.533812 -0.628978599
C 84.7349269 254.873197 -0.818149574
C 84.7857214 256.31264 -0.866764888
C 86.03006 257.058735 -1.06472973
C 86.023681 258.500641 -0.900261203
C 87.2223735 254.889909 -1.0523552
C 87.2626766 256.333105 -1.13023016
C 88.5516212 257.041685 -1.17634764
C 88.5189836 258.471907 -1.12146536
C 89.7669699 254.921231 -1.26971452
C 89.831934 256.354302 -1.19895778
C 91.0831959 257.073764 -1.05272907
C 91.0265822 258.508763 -0.971170316
C 92.2716246 254.865646 -1.06196783
C 92.3304919 256.387379 -0.961937497
C 93.5633577 257.10658 -0.818626611
C 93.5614231 258.503452 -0.772485259
C 94.7928817 254.857128 -0.923266292
C 94.7907989 256.347827 -0.810134218
C 96.0519498 257.051319 -0.786637398
C 96.0350336 258.542199 -0.751839246
C 97.288995 254.900311 -0.726844177
C 97.3105715 256.327104 -0.716218239
C 98.5507733 257.067168 -0.692011346
C 98.5797076 258.511873 -0.741435335
C 99.776138 254.91585 -0.675716807
C 99.7554613 256.35317 -0.694701688
C 101.072981 257.043657 -0.678271254
C 101.07973 258.466392 -0.730740183
C 102.232523 254.894481 -0.486089354
C 102.26968 256.342932 -0.543888919
C 103.520679 257.068023 -0.434449443
C 103.534255 258.485981 -0.455693275
C 104.721252 254.849832 -0.389424313
C 104.72468 256.322273 -0.355939655
C 105.958999 257.021605 -0.345794353
C 106.029119 258.449849 -0.467365445
C 107.248048 254.887088 -0.206785305
C 107.227634 256.313879 -0.267326897
C 108.480961 257.059412 -0.280571701
C 108.498983 258.486073 -0.477593816
C 109.681846 254.874648 -0.173217403
C 109.751793 256.303731 -0.283195661
C 111.022065 257.026832 -0.311676202
C 111.007997 258.473683 -0.59806923
C 112.182695 254.865431 0.0283641978
C 112.229716 256.334192 -0.147365873
C 113.489888 257.023918 -0.127357823
C 113.487465 258.466309 -0.2907118
C 114.673885 254.85662 -0.00105983189
C 114.721407 256.292057 -0.0157235013
C 115.97193 257.008036 -0.0913554863
C 115.969449 258.49133 -0.084226043
C 117.201531 254.869099 -0.0376505336
C 117.22028 256.282521 -0.0928869395
C 118.476604 257.034564 -0.0958795707
C 118.443799 258.464604 -0.0270396837
C 119.68027 254.856172 -0.0695374628
C 119.729407 256.313739 -0.130518526
C 120.952677 257.083178 -0.232886761
C 120.920838 258.525366 -0.194398731
C 122.176845 254.916909 -0.221212836
C 122.178402 256.369322 -0.252816934
C 123.409603 257.082007 -0.209173473
C 123.376064 258.526604 -0.237915845
C 124.662833 254.873338 -0.104136945
C 124.624772 256.308044 -0.142058803
C 125.937242 256.996939 -0.195293151
C 125.887805 258.467676 -0.143905969
C 127.238723 254.892817 -0.0718510792
C 127.201816 256.323136 -0.092072308
C 128.451582 256.979336 -0.172349244
C 128.457943 258.45903 -0.279114575
C 129.705016 254.858053 -0.216069058
C 129.722986 256.259467 -0.177772555
C 130.926343 256.996637 -0.379477995
C 130.924808 258.468248 -0.434205686
C 132.243961 254.855245 -0.354948936
C 132.203521 256.269659 -0.32895962
C 133.44605 257.027472 -0.405816987
C 133.42728 258.472885 -0.458110007
C 134.723112 254.84363 -0.396404348
C 134.706335 256.301515 -0.458435239
C 135.966089 257.043488 -0.42629519
C 135.902423 258.488601 -0.346872354
C 137.212912 254.890104 -0.555593668
C 137.191424 256.277077 -0.573820999
C 138.452738 256.994081 -0.524626426
C 138.456909 258.489773 -0.477519064
C 139.743501 254.905033 -0.479533512
C 139.753121 256.355637 -0.540256136
C 141.028508 257.049581 -0.52843203
C 140.994123 258.469711 -0.590750913
C 142.247046 254.902315 -0.478254294
C 142.284244 256.365365 -0.52991142
C 143.48998 257.047313 -0.60573172
C 143.478876 258.466717 -0.707601753
C 144.725786 254.852224 -0.57895008
C 144.758236 256.304758 -0.676228643
C 146.005791 257.053564 -0.723257498
C 146.001423 258.464575 -0.800373523
C 147.241249 254.868318 -0.628136687
C 147.231531 256.355821 -0.6741246
C 148.455536 257.033495 -0.67654891
C 148.548042 258.516023 -0.759086189
C 149.693666 254.900186 -0.542600152
C 149.664022 256.288711 -0.514864555
C 150.920171 257.047943 -0.610769598
C 150.950662 258.513971 -0.567915161
C 152.219168 254.915301 -0.664538806
C 152.253069 256.343979 -0.602824779
C 153.474943 257.03566 -0.677164012
C 153.492057 258.473379 -0.507106093
C 154.691486 254.879978 -0.775265363
C 154.703243 256.314357 -0.762854247
C 155.942991 257.013213 -0.68712002
C 155.969137 258.46995 -0.494563882
C 157.200402 254.863745 -0.822846591
C 157.196981 256.28272 -0.725262525
C 158.478241 257.028702 -0.640037341
C 158.411064 258.447958 -0.550945941
C 159.71626 254.890581 -0.623703827
C 159.710851 256.309178 -0.61146726
C 160.962259 257.035731 -0.540905828
C 160.900556 258.551833 -0.498415445
C 162.201312 254.923323 -0.45029366
C 162.194566 256.369415 -0.438884566
C 163.469958 257.05128 -0.384903853
C 163.44449 258.509167 -0.364627546
C 164.704618 254.925188 -0.339518173
C 164.709803 256.345272 -0.367566542
C 165.957331 257.070831 -0.254861828
C 165.902216 258.504093 -0.17016451
C 167.179866 254.895854 -0.0964067397
C 167.174795 256.352285 -0.119815735
C 168.43086 257.067761 -0.0522747045
C 168.38077 258.520177 0.0105805805
C 169.665718 254.910321 -0.0578416308
C 169.652011 256.356785 0.00340744041
C 170.881006 257.10356 0.262649298
C 170.867595 258.551574 0.357833711
C 172.114195 254.894634 0.273091337
C 172.114331 256.355005 0.363296319
C 173.33185 257.109021 0.45665084
C 173.356304 258.534212 0.544317072
C 174.590353 254.915504 0.445144749
C 174.581528 256.394124 0.49488816
C 175.868199 257.10156 0.496734744
C 175.818021 258.531473 0.653183483
C 177.093446 254.946563 0.49679388
C 177.102984 256.38956 0.469447403
C 178.337886 257.084159 0.42125124
C 178.365379 258.495859 0.47346341
C 179.615598 254.93369 0.425152055
C 179.601217 256.39328 0.463357217
C 180.907776 257.16474 0.363878105
C 180.872028 258.588875 0.301628141
C 182.103572 254.991364 0.104060347
C 182.135112 256.363886 0.171217629
C 183.346553 257.127688 -0.021230307
C 183.302322 258.549001 -0.0376615391
C 184.572617 254.949023 -0.227116914
C 184.610108 256.391089 -0.228586088
C 185.824121 257.081517 -0.351498315
C 185.811684 258.518545 -0.253208407
C 187.016327 254.876725 -0.534921628
C 187.063056 256.379818 -0.475060336
C 188.305582 257.067041 -0.362767615
C 188.292807 258.523991 -0.240263473
C 189.517118 254.915685 -0.634476842
C 189.524718 256.372554 -0.527457534
C 190.763279 257.06555 -0.648830257
C 190.742548 258.518324 -0.460116625
C 192.004722 254.923393 -0.959121862
C 191.963003 256.377848 -0.951747534
C 193.236331 257.053254 -1.03136935
C 193.262136 258.505702 -0.904086066
C 194.448278 254.894779 -1.15617079
C 194.462904 256.334262 -1.15212932
C 195.729173 257.055806 -1.26421864
C 195.763409 258.473508 -1.17138417
C 197.002277 254.89449 -1.33866376
C 197.003977 256.312322 -1.45800772
C 198.208958 257.060112 -1.51191448
C 198.228085 258.483308 -1.42263841
C 199.477873 254.888135 -1.37388229
C 199.458811 256.315999 -1.54135922
C 200.732943 257.032045 -1.52841063
C 200.687473 258.4641 -1.54032918
C 201.998119 254.914693 -1.46477527
C 201.993755 256.325604 -1.4781459
C 203.229143 257.070207 -1.50909976
C 203.197832 258.562691 -1.45518516
C 204.540064 254.866112 -1.40455178
C 204.476663 256.313745 -1.44827417
C 205.731451 257.061849 -1.46533851
C 205.721729 258.477313 -1.39761014
C 207.022942 254.859695 -1.40927457
C 206.978388 256.313657 -1.44226679
C 208.226617 257.043634 -1.5485163
C 208.223315 258.463644 -1.48865364
C 209.512908 254.864595 -1.57389304
C 209.44901 256.283702 -1.62306128
C 210.720927 257.022613 -1.62010199
C 210.743115 258.444597 -1.50877479
C 211.958642 254.836445 -1.54064095
C 211.937842 256.304469 -1.60160203
C 213.212993 257.042404 -1.52954894
C 213.258956 258.489807 -1.44234272
C 214.468263 254.847833 -1.49260354
C 214.469946 256.295131 -1.51168991
C 215.7241 257.080541 -1.38919399
C 215.756518 258.524423 -1.34328587
C 216.96527 254.904068 -1.30817083
C 216.970442 256.358429 -1.34260576
C 218.203707 257.053296 -1.28388924
C 218.241698 258.481791 -1.32066305
C 219.445922 254.904743 -1.31952869
C 219.421072 256.311167 -1.27230044
C 220.715153 257.034083 -1.20220719
C 220.735065 258.480182 -1.19729352
C 221.914401 254.860243 -1.19131014
C 221.910963 256.25994 -1.23520735
C 223.150881 257.007486 -1.16008604
C 223.253563 258.454416 -1.06855546
C 224.403782 254.899431 -1.04971046
C 224.435073 256.323369 -1.08180448
C 225.681219 257.060217 -1.13575004
C 225.731742 258.5066 -1.05992191
C 226.92386 254.876281 -0.985197384
C 226.904408 256.333652 -1.04577979
C 228.165392 257.016831 -0.984800819
C 228.230487 258.463059 -0.970206442
C 229.439385 254.833314 -0.833120576
C 229.394043 256.287378 -0.8387462
C 230.627068 256.999851 -0.809492492
C 230.686693 258.465275 -0.785795248
C 231.950224 254.867985 -0.720677352
C 231.949556 256.295728 -0.699369776
C 233.150765 257.017735 -0.654404254
C 233.132426 258.466043 -0.679160695
C 234.418726 254.865246 -0.621446352
C 234.392833 256.282515 -0.62174563
C 235.594604 257.010236 -0.448164945
C 235.616045 258.459668 -0.413708506
C 236.846054 254.876582 -0.402533289
C 236.857589 256.295333 -0.366184168
C 238.157222 256.987052 -0.330181749
C 238.162536 258.427263 -0.338565359
C 239.421838 254.836777 -0.3371698
C 239.39233 256.299623 -0.340809327
C 240.639735 256.999782 -0.275011554
C 240.687668 258.412553 -0.258293653
C 241.929376 254.806932 -0.275485993
C 241.893563 256.227257 -0.260834271
C 243.127681 256.963823 -0.127455978
C 243.159693 258.396995 -0.0829738979
C 244.40708 254.842337 -0.261789996
C 244.356247 256.289783 -0.189455506
C 245.610369 257.007414 -0.116867876
C 245.624666 258.445851 0.00327702875
C 246.892596 254.877476 -0.271787728
C 246.881896 256.292155 -0.223741381
C 248.141062 257.064001 -0.124165747
C 248.117559 258.493821 0.0206882501
